! xFRA Calibration Matrix
! Type: SOLT
# HZ S RI R 50
1.000000e+05 4.000000e-02 8.000000e-03 9.700000e-01 -5.000000e-03 9.500000e-01 -8.000000e-03 3.500000e-02 6.000000e-03
1.035142e+05 4.000000e-02 8.000000e-03 9.700000e-01 -5.000000e-03 9.500000e-01 -8.000000e-03 3.500000e-02 6.000000e-03
1.071519e+05 4.000000e-02 8.000000e-03 9.700000e-01 -5.000000e-03 9.500000e-01 -8.000000e-03 3.500000e-02 6.000000e-03
1.109175e+05 4.000000e-02 8.000000e-03 9.700000e-01 -5.000000e-03 9.500000e-01 -8.000000e-03 3.500000e-02 6.000000e-03
1.148154e+05 4.000000e-02 8.000000e-03 9.700000e-01 -5.000000e-03 9.500000e-01 -8.000000e-03 3.500000e-02 6.000000e-03
1.188502e+05 4.000000e-02 8.000000e-03 9.700000e-01 -5.000000e-03 9.500000e-01 -8.000000e-03 3.500000e-02 6.000000e-03
1.230269e+05 4.000000e-02 8.000000e-03 9.700000e-01 -5.000000e-03 9.500000e-01 -8.000000e-03 3.500000e-02 6.000000e-03
1.273503e+05 4.000000e-02 8.000000e-03 9.700000e-01 -5.000000e-03 9.500000e-01 -8.000000e-03 3.500000e-02 6.000000e-03
1.318257e+05 4.000000e-02 8.000000e-03 9.700000e-01 -5.000000e-03 9.500000e-01 -8.000000e-03 3.500000e-02 6.000000e-03
1.364583e+05 4.000000e-02 8.000000e-03 9.700000e-01 -5.000000e-03 9.500000e-01 -8.000000e-03 3.500000e-02 6.000000e-03
1.412538e+05 4.000000e-02 8.000000e-03 9.700000e-01 -5.000000e-03 9.500000e-01 -8.000000e-03 3.500000e-02 6.000000e-03
1.462177e+05 4.000000e-02 8.000000e-03 9.700000e-01 -5.000000e-03 9.500000e-01 -8.000000e-03 3.500000e-02 6.000000e-03
1.513561e+05 4.000000e-02 8.000000e-03 9.700000e-01 -5.000000e-03 9.500000e-01 -8.000000e-03 3.500000e-02 6.000000e-03
1.566751e+05 4.000000e-02 8.000000e-03 9.700000e-01 -5.000000e-03 9.500000e-01 -8.000000e-03 3.500000e-02 6.000000e-03
1.621810e+05 4.000000e-02 8.000000e-03 9.700000e-01 -5.000000e-03 9.500000e-01 -8.000000e-03 3.500000e-02 6.000000e-03
1.678804e+05 4.000000e-02 8.000000e-03 9.700000e-01 -5.000000e-03 9.500000e-01 -8.000000e-03 3.500000e-02 6.000000e-03
1.737801e+05 4.000000e-02 8.000000e-03 9.700000e-01 -5.000000e-03 9.500000e-01 -8.000000e-03 3.500000e-02 6.000000e-03
1.798871e+05 4.000000e-02 8.000000e-03 9.700000e-01 -5.000000e-03 9.500000e-01 -8.000000e-03 3.500000e-02 6.000000e-03
1.862087e+05 4.000000e-02 8.000000e-03 9.700000e-01 -5.000000e-03 9.500000e-01 -8.000000e-03 3.500000e-02 6.000000e-03
1.927525e+05 4.000000e-02 8.000000e-03 9.700000e-01 -5.000000e-03 9.500000e-01 -8.000000e-03 3.500000e-02 6.000000e-03
1.995262e+05 4.000000e-02 8.000000e-03 9.700000e-01 -5.000000e-03 9.500000e-01 -8.000000e-03 3.500000e-02 6.000000e-03
2.065380e+05 4.000000e-02 8.000000e-03 9.700000e-01 -5.000000e-03 9.500000e-01 -8.000000e-03 3.500000e-02 6.000000e-03
2.137962e+05 4.000000e-02 8.000000e-03 9.700000e-01 -5.000000e-03 9.500000e-01 -8.000000e-03 3.500000e-02 6.000000e-03
2.213095e+05 4.000000e-02 8.000000e-03 9.700000e-01 -5.000000e-03 9.500000e-01 -8.000000e-03 3.500000e-02 6.000000e-03
2.290868e+05 4.000000e-02 8.000000e-03 9.700000e-01 -5.000000e-03 9.500000e-01 -8.000000e-03 3.500000e-02 6.000000e-03
2.371374e+05 4.000000e-02 8.000000e-03 9.700000e-01 -5.000000e-03 9.500000e-01 -8.000000e-03 3.500000e-02 6.000000e-03
2.454709e+05 4.000000e-02 8.000000e-03 9.700000e-01 -5.000000e-03 9.500000e-01 -8.000000e-03 3.500000e-02 6.000000e-03
2.540973e+05 4.000000e-02 8.000000e-03 9.700000e-01 -5.000000e-03 9.500000e-01 -8.000000e-03 3.500000e-02 6.000000e-03
2.630268e+05 4.000000e-02 8.000000e-03 9.700000e-01 -5.000000e-03 9.500000e-01 -8.000000e-03 3.500000e-02 6.000000e-03
2.722701e+05 4.000000e-02 8.000000e-03 9.700000e-01 -5.000000e-03 9.500000e-01 -8.000000e-03 3.500000e-02 6.000000e-03
2.818383e+05 4.000000e-02 8.000000e-03 9.700000e-01 -5.000000e-03 9.500000e-01 -8.000000e-03 3.500000e-02 6.000000e-03
2.917427e+05 4.000000e-02 8.000000e-03 9.700000e-01 -5.000000e-03 9.500000e-01 -8.000000e-03 3.500000e-02 6.000000e-03
3.019952e+05 4.000000e-02 8.000000e-03 9.700000e-01 -5.000000e-03 9.500000e-01 -8.000000e-03 3.500000e-02 6.000000e-03
3.126079e+05 4.000000e-02 8.000000e-03 9.700000e-01 -5.000000e-03 9.500000e-01 -8.000000e-03 3.500000e-02 6.000000e-03
3.235937e+05 4.000000e-02 8.000000e-03 9.700000e-01 -5.000000e-03 9.500000e-01 -8.000000e-03 3.500000e-02 6.000000e-03
3.349654e+05 4.000000e-02 8.000000e-03 9.700000e-01 -5.000000e-03 9.500000e-01 -8.000000e-03 3.500000e-02 6.000000e-03
3.467369e+05 4.000000e-02 8.000000e-03 9.700000e-01 -5.000000e-03 9.500000e-01 -8.000000e-03 3.500000e-02 6.000000e-03
3.589219e+05 4.000000e-02 8.000000e-03 9.700000e-01 -5.000000e-03 9.500000e-01 -8.000000e-03 3.500000e-02 6.000000e-03
3.715352e+05 4.000000e-02 8.000000e-03 9.700000e-01 -5.000000e-03 9.500000e-01 -8.000000e-03 3.500000e-02 6.000000e-03
3.845918e+05 4.000000e-02 8.000000e-03 9.700000e-01 -5.000000e-03 9.500000e-01 -8.000000e-03 3.500000e-02 6.000000e-03
3.981072e+05 4.000000e-02 8.000000e-03 9.700000e-01 -5.000000e-03 9.500000e-01 -8.000000e-03 3.500000e-02 6.000000e-03
4.120975e+05 4.000000e-02 8.000000e-03 9.700000e-01 -5.000000e-03 9.500000e-01 -8.000000e-03 3.500000e-02 6.000000e-03
4.265795e+05 4.000000e-02 8.000000e-03 9.700000e-01 -5.000000e-03 9.500000e-01 -8.000000e-03 3.500000e-02 6.000000e-03
4.415704e+05 4.000000e-02 8.000000e-03 9.700000e-01 -5.000000e-03 9.500000e-01 -8.000000e-03 3.500000e-02 6.000000e-03
4.570882e+05 4.000000e-02 8.000000e-03 9.700000e-01 -5.000000e-03 9.500000e-01 -8.000000e-03 3.500000e-02 6.000000e-03
4.731513e+05 4.000000e-02 8.000000e-03 9.700000e-01 -5.000000e-03 9.500000e-01 -8.000000e-03 3.500000e-02 6.000000e-03
4.897788e+05 4.000000e-02 8.000000e-03 9.700000e-01 -5.000000e-03 9.500000e-01 -8.000000e-03 3.500000e-02 6.000000e-03
5.069907e+05 4.000000e-02 8.000000e-03 9.700000e-01 -5.000000e-03 9.500000e-01 -8.000000e-03 3.500000e-02 6.000000e-03
5.248075e+05 4.000000e-02 8.000000e-03 9.700000e-01 -5.000000e-03 9.500000e-01 -8.000000e-03 3.500000e-02 6.000000e-03
5.432503e+05 4.000000e-02 8.000000e-03 9.700000e-01 -5.000000e-03 9.500000e-01 -8.000000e-03 3.500000e-02 6.000000e-03
5.623413e+05 4.000000e-02 8.000000e-03 9.700000e-01 -5.000000e-03 9.500000e-01 -8.000000e-03 3.500000e-02 6.000000e-03
5.821032e+05 4.000000e-02 8.000000e-03 9.700000e-01 -5.000000e-03 9.500000e-01 -8.000000e-03 3.500000e-02 6.000000e-03
6.025596e+05 4.000000e-02 8.000000e-03 9.700000e-01 -5.000000e-03 9.500000e-01 -8.000000e-03 3.500000e-02 6.000000e-03
6.237348e+05 4.000000e-02 8.000000e-03 9.700000e-01 -5.000000e-03 9.500000e-01 -8.000000e-03 3.500000e-02 6.000000e-03
6.456542e+05 4.000000e-02 8.000000e-03 9.700000e-01 -5.000000e-03 9.500000e-01 -8.000000e-03 3.500000e-02 6.000000e-03
6.683439e+05 4.000000e-02 8.000000e-03 9.700000e-01 -5.000000e-03 9.500000e-01 -8.000000e-03 3.500000e-02 6.000000e-03
6.918310e+05 4.000000e-02 8.000000e-03 9.700000e-01 -5.000000e-03 9.500000e-01 -8.000000e-03 3.500000e-02 6.000000e-03
7.161434e+05 4.000000e-02 8.000000e-03 9.700000e-01 -5.000000e-03 9.500000e-01 -8.000000e-03 3.500000e-02 6.000000e-03
7.413102e+05 4.000000e-02 8.000000e-03 9.700000e-01 -5.000000e-03 9.500000e-01 -8.000000e-03 3.500000e-02 6.000000e-03
7.673615e+05 4.000000e-02 8.000000e-03 9.700000e-01 -5.000000e-03 9.500000e-01 -8.000000e-03 3.500000e-02 6.000000e-03
7.943282e+05 4.000000e-02 8.000000e-03 9.700000e-01 -5.000000e-03 9.500000e-01 -8.000000e-03 3.500000e-02 6.000000e-03
8.222426e+05 4.000000e-02 8.000000e-03 9.700000e-01 -5.000000e-03 9.500000e-01 -8.000000e-03 3.500000e-02 6.000000e-03
8.511380e+05 4.000000e-02 8.000000e-03 9.700000e-01 -5.000000e-03 9.500000e-01 -8.000000e-03 3.500000e-02 6.000000e-03
8.810489e+05 4.000000e-02 8.000000e-03 9.700000e-01 -5.000000e-03 9.500000e-01 -8.000000e-03 3.500000e-02 6.000000e-03
9.120108e+05 4.000000e-02 8.000000e-03 9.700000e-01 -5.000000e-03 9.500000e-01 -8.000000e-03 3.500000e-02 6.000000e-03
9.440609e+05 4.000000e-02 8.000000e-03 9.700000e-01 -5.000000e-03 9.500000e-01 -8.000000e-03 3.500000e-02 6.000000e-03
9.772372e+05 4.000000e-02 8.000000e-03 9.700000e-01 -5.000000e-03 9.500000e-01 -8.000000e-03 3.500000e-02 6.000000e-03
1.011579e+06 4.000000e-02 8.000000e-03 9.700000e-01 -5.000000e-03 9.500000e-01 -8.000000e-03 3.500000e-02 6.000000e-03
1.047129e+06 4.000000e-02 8.000000e-03 9.700000e-01 -5.000000e-03 9.500000e-01 -8.000000e-03 3.500000e-02 6.000000e-03
1.083927e+06 4.000000e-02 8.000000e-03 9.700000e-01 -5.000000e-03 9.500000e-01 -8.000000e-03 3.500000e-02 6.000000e-03
1.122018e+06 4.000000e-02 8.000000e-03 9.700000e-01 -5.000000e-03 9.500000e-01 -8.000000e-03 3.500000e-02 6.000000e-03
1.161449e+06 4.000000e-02 8.000000e-03 9.700000e-01 -5.000000e-03 9.500000e-01 -8.000000e-03 3.500000e-02 6.000000e-03
1.202264e+06 4.000000e-02 8.000000e-03 9.700000e-01 -5.000000e-03 9.500000e-01 -8.000000e-03 3.500000e-02 6.000000e-03
1.244515e+06 4.000000e-02 8.000000e-03 9.700000e-01 -5.000000e-03 9.500000e-01 -8.000000e-03 3.500000e-02 6.000000e-03
1.288250e+06 4.000000e-02 8.000000e-03 9.700000e-01 -5.000000e-03 9.500000e-01 -8.000000e-03 3.500000e-02 6.000000e-03
1.333521e+06 4.000000e-02 8.000000e-03 9.700000e-01 -5.000000e-03 9.500000e-01 -8.000000e-03 3.500000e-02 6.000000e-03
1.380384e+06 4.000000e-02 8.000000e-03 9.700000e-01 -5.000000e-03 9.500000e-01 -8.000000e-03 3.500000e-02 6.000000e-03
1.428894e+06 4.000000e-02 8.000000e-03 9.700000e-01 -5.000000e-03 9.500000e-01 -8.000000e-03 3.500000e-02 6.000000e-03
1.479108e+06 4.000000e-02 8.000000e-03 9.700000e-01 -5.000000e-03 9.500000e-01 -8.000000e-03 3.500000e-02 6.000000e-03
1.531087e+06 4.000000e-02 8.000000e-03 9.700000e-01 -5.000000e-03 9.500000e-01 -8.000000e-03 3.500000e-02 6.000000e-03
1.584893e+06 4.000000e-02 8.000000e-03 9.700000e-01 -5.000000e-03 9.500000e-01 -8.000000e-03 3.500000e-02 6.000000e-03
1.640590e+06 4.000000e-02 8.000000e-03 9.700000e-01 -5.000000e-03 9.500000e-01 -8.000000e-03 3.500000e-02 6.000000e-03
1.698244e+06 4.000000e-02 8.000000e-03 9.700000e-01 -5.000000e-03 9.500000e-01 -8.000000e-03 3.500000e-02 6.000000e-03
1.757924e+06 4.000000e-02 8.000000e-03 9.700000e-01 -5.000000e-03 9.500000e-01 -8.000000e-03 3.500000e-02 6.000000e-03
1.819701e+06 4.000000e-02 8.000000e-03 9.700000e-01 -5.000000e-03 9.500000e-01 -8.000000e-03 3.500000e-02 6.000000e-03
1.883649e+06 4.000000e-02 8.000000e-03 9.700000e-01 -5.000000e-03 9.500000e-01 -8.000000e-03 3.500000e-02 6.000000e-03
1.949845e+06 4.000000e-02 8.000000e-03 9.700000e-01 -5.000000e-03 9.500000e-01 -8.000000e-03 3.500000e-02 6.000000e-03
2.018366e+06 4.000000e-02 8.000000e-03 9.700000e-01 -5.000000e-03 9.500000e-01 -8.000000e-03 3.500000e-02 6.000000e-03
2.089296e+06 4.000000e-02 8.000000e-03 9.700000e-01 -5.000000e-03 9.500000e-01 -8.000000e-03 3.500000e-02 6.000000e-03
2.162719e+06 4.000000e-02 8.000000e-03 9.700000e-01 -5.000000e-03 9.500000e-01 -8.000000e-03 3.500000e-02 6.000000e-03
2.238721e+06 4.000000e-02 8.000000e-03 9.700000e-01 -5.000000e-03 9.500000e-01 -8.000000e-03 3.500000e-02 6.000000e-03
2.317395e+06 4.000000e-02 8.000000e-03 9.700000e-01 -5.000000e-03 9.500000e-01 -8.000000e-03 3.500000e-02 6.000000e-03
2.398833e+06 4.000000e-02 8.000000e-03 9.700000e-01 -5.000000e-03 9.500000e-01 -8.000000e-03 3.500000e-02 6.000000e-03
2.483133e+06 4.000000e-02 8.000000e-03 9.700000e-01 -5.000000e-03 9.500000e-01 -8.000000e-03 3.500000e-02 6.000000e-03
2.570396e+06 4.000000e-02 8.000000e-03 9.700000e-01 -5.000000e-03 9.500000e-01 -8.000000e-03 3.500000e-02 6.000000e-03
2.660725e+06 4.000000e-02 8.000000e-03 9.700000e-01 -5.000000e-03 9.500000e-01 -8.000000e-03 3.500000e-02 6.000000e-03
2.754229e+06 4.000000e-02 8.000000e-03 9.700000e-01 -5.000000e-03 9.500000e-01 -8.000000e-03 3.500000e-02 6.000000e-03
2.851018e+06 4.000000e-02 8.000000e-03 9.700000e-01 -5.000000e-03 9.500000e-01 -8.000000e-03 3.500000e-02 6.000000e-03
2.951209e+06 4.000000e-02 8.000000e-03 9.700000e-01 -5.000000e-03 9.500000e-01 -8.000000e-03 3.500000e-02 6.000000e-03
3.054921e+06 4.000000e-02 8.000000e-03 9.700000e-01 -5.000000e-03 9.500000e-01 -8.000000e-03 3.500000e-02 6.000000e-03
3.162278e+06 4.000000e-02 8.000000e-03 9.700000e-01 -5.000000e-03 9.500000e-01 -8.000000e-03 3.500000e-02 6.000000e-03
3.273407e+06 4.000000e-02 8.000000e-03 9.700000e-01 -5.000000e-03 9.500000e-01 -8.000000e-03 3.500000e-02 6.000000e-03
3.388442e+06 4.000000e-02 8.000000e-03 9.700000e-01 -5.000000e-03 9.500000e-01 -8.000000e-03 3.500000e-02 6.000000e-03
3.507519e+06 4.000000e-02 8.000000e-03 9.700000e-01 -5.000000e-03 9.500000e-01 -8.000000e-03 3.500000e-02 6.000000e-03
3.630781e+06 4.000000e-02 8.000000e-03 9.700000e-01 -5.000000e-03 9.500000e-01 -8.000000e-03 3.500000e-02 6.000000e-03
3.758374e+06 4.000000e-02 8.000000e-03 9.700000e-01 -5.000000e-03 9.500000e-01 -8.000000e-03 3.500000e-02 6.000000e-03
3.890451e+06 4.000000e-02 8.000000e-03 9.700000e-01 -5.000000e-03 9.500000e-01 -8.000000e-03 3.500000e-02 6.000000e-03
4.027170e+06 4.000000e-02 8.000000e-03 9.700000e-01 -5.000000e-03 9.500000e-01 -8.000000e-03 3.500000e-02 6.000000e-03
4.168694e+06 4.000000e-02 8.000000e-03 9.700000e-01 -5.000000e-03 9.500000e-01 -8.000000e-03 3.500000e-02 6.000000e-03
4.315191e+06 4.000000e-02 8.000000e-03 9.700000e-01 -5.000000e-03 9.500000e-01 -8.000000e-03 3.500000e-02 6.000000e-03
4.466836e+06 4.000000e-02 8.000000e-03 9.700000e-01 -5.000000e-03 9.500000e-01 -8.000000e-03 3.500000e-02 6.000000e-03
4.623810e+06 4.000000e-02 8.000000e-03 9.700000e-01 -5.000000e-03 9.500000e-01 -8.000000e-03 3.500000e-02 6.000000e-03
4.786301e+06 4.000000e-02 8.000000e-03 9.700000e-01 -5.000000e-03 9.500000e-01 -8.000000e-03 3.500000e-02 6.000000e-03
4.954502e+06 4.000000e-02 8.000000e-03 9.700000e-01 -5.000000e-03 9.500000e-01 -8.000000e-03 3.500000e-02 6.000000e-03
5.128614e+06 4.000000e-02 8.000000e-03 9.700000e-01 -5.000000e-03 9.500000e-01 -8.000000e-03 3.500000e-02 6.000000e-03
5.308844e+06 4.000000e-02 8.000000e-03 9.700000e-01 -5.000000e-03 9.500000e-01 -8.000000e-03 3.500000e-02 6.000000e-03
5.495409e+06 4.000000e-02 8.000000e-03 9.700000e-01 -5.000000e-03 9.500000e-01 -8.000000e-03 3.500000e-02 6.000000e-03
5.688529e+06 4.000000e-02 8.000000e-03 9.700000e-01 -5.000000e-03 9.500000e-01 -8.000000e-03 3.500000e-02 6.000000e-03
5.888437e+06 4.000000e-02 8.000000e-03 9.700000e-01 -5.000000e-03 9.500000e-01 -8.000000e-03 3.500000e-02 6.000000e-03
6.095369e+06 4.000000e-02 8.000000e-03 9.700000e-01 -5.000000e-03 9.500000e-01 -8.000000e-03 3.500000e-02 6.000000e-03
6.309573e+06 4.000000e-02 8.000000e-03 9.700000e-01 -5.000000e-03 9.500000e-01 -8.000000e-03 3.500000e-02 6.000000e-03
6.531306e+06 4.000000e-02 8.000000e-03 9.700000e-01 -5.000000e-03 9.500000e-01 -8.000000e-03 3.500000e-02 6.000000e-03
6.760830e+06 4.000000e-02 8.000000e-03 9.700000e-01 -5.000000e-03 9.500000e-01 -8.000000e-03 3.500000e-02 6.000000e-03
6.998420e+06 4.000000e-02 8.000000e-03 9.700000e-01 -5.000000e-03 9.500000e-01 -8.000000e-03 3.500000e-02 6.000000e-03
7.244360e+06 4.000000e-02 8.000000e-03 9.700000e-01 -5.000000e-03 9.500000e-01 -8.000000e-03 3.500000e-02 6.000000e-03
7.498942e+06 4.000000e-02 8.000000e-03 9.700000e-01 -5.000000e-03 9.500000e-01 -8.000000e-03 3.500000e-02 6.000000e-03
7.762471e+06 4.000000e-02 8.000000e-03 9.700000e-01 -5.000000e-03 9.500000e-01 -8.000000e-03 3.500000e-02 6.000000e-03
8.035261e+06 4.000000e-02 8.000000e-03 9.700000e-01 -5.000000e-03 9.500000e-01 -8.000000e-03 3.500000e-02 6.000000e-03
8.317638e+06 4.000000e-02 8.000000e-03 9.700000e-01 -5.000000e-03 9.500000e-01 -8.000000e-03 3.500000e-02 6.000000e-03
8.609938e+06 4.000000e-02 8.000000e-03 9.700000e-01 -5.000000e-03 9.500000e-01 -8.000000e-03 3.500000e-02 6.000000e-03
8.912509e+06 4.000000e-02 8.000000e-03 9.700000e-01 -5.000000e-03 9.500000e-01 -8.000000e-03 3.500000e-02 6.000000e-03
9.225714e+06 4.000000e-02 8.000000e-03 9.700000e-01 -5.000000e-03 9.500000e-01 -8.000000e-03 3.500000e-02 6.000000e-03
9.549926e+06 4.000000e-02 8.000000e-03 9.700000e-01 -5.000000e-03 9.500000e-01 -8.000000e-03 3.500000e-02 6.000000e-03
9.885531e+06 4.000000e-02 8.000000e-03 9.700000e-01 -5.000000e-03 9.500000e-01 -8.000000e-03 3.500000e-02 6.000000e-03
1.023293e+07 4.000000e-02 8.000000e-03 9.700000e-01 -5.000000e-03 9.500000e-01 -8.000000e-03 3.500000e-02 6.000000e-03
1.059254e+07 4.000000e-02 8.000000e-03 9.700000e-01 -5.000000e-03 9.500000e-01 -8.000000e-03 3.500000e-02 6.000000e-03
1.096478e+07 4.000000e-02 8.000000e-03 9.700000e-01 -5.000000e-03 9.500000e-01 -8.000000e-03 3.500000e-02 6.000000e-03
1.135011e+07 4.000000e-02 8.000000e-03 9.700000e-01 -5.000000e-03 9.500000e-01 -8.000000e-03 3.500000e-02 6.000000e-03
1.174898e+07 4.000000e-02 8.000000e-03 9.700000e-01 -5.000000e-03 9.500000e-01 -8.000000e-03 3.500000e-02 6.000000e-03
1.216186e+07 4.000000e-02 8.000000e-03 9.700000e-01 -5.000000e-03 9.500000e-01 -8.000000e-03 3.500000e-02 6.000000e-03
1.258925e+07 4.000000e-02 8.000000e-03 9.700000e-01 -5.000000e-03 9.500000e-01 -8.000000e-03 3.500000e-02 6.000000e-03
1.303167e+07 4.000000e-02 8.000000e-03 9.700000e-01 -5.000000e-03 9.500000e-01 -8.000000e-03 3.500000e-02 6.000000e-03
1.348963e+07 4.000000e-02 8.000000e-03 9.700000e-01 -5.000000e-03 9.500000e-01 -8.000000e-03 3.500000e-02 6.000000e-03
1.396368e+07 4.000000e-02 8.000000e-03 9.700000e-01 -5.000000e-03 9.500000e-01 -8.000000e-03 3.500000e-02 6.000000e-03
1.445440e+07 4.000000e-02 8.000000e-03 9.700000e-01 -5.000000e-03 9.500000e-01 -8.000000e-03 3.500000e-02 6.000000e-03
1.496236e+07 4.000000e-02 8.000000e-03 9.700000e-01 -5.000000e-03 9.500000e-01 -8.000000e-03 3.500000e-02 6.000000e-03
1.548817e+07 4.000000e-02 8.000000e-03 9.700000e-01 -5.000000e-03 9.500000e-01 -8.000000e-03 3.500000e-02 6.000000e-03
1.603245e+07 4.000000e-02 8.000000e-03 9.700000e-01 -5.000000e-03 9.500000e-01 -8.000000e-03 3.500000e-02 6.000000e-03
1.659587e+07 4.000000e-02 8.000000e-03 9.700000e-01 -5.000000e-03 9.500000e-01 -8.000000e-03 3.500000e-02 6.000000e-03
1.717908e+07 4.000000e-02 8.000000e-03 9.700000e-01 -5.000000e-03 9.500000e-01 -8.000000e-03 3.500000e-02 6.000000e-03
1.778279e+07 4.000000e-02 8.000000e-03 9.700000e-01 -5.000000e-03 9.500000e-01 -8.000000e-03 3.500000e-02 6.000000e-03
1.840772e+07 4.000000e-02 8.000000e-03 9.700000e-01 -5.000000e-03 9.500000e-01 -8.000000e-03 3.500000e-02 6.000000e-03
1.905461e+07 4.000000e-02 8.000000e-03 9.700000e-01 -5.000000e-03 9.500000e-01 -8.000000e-03 3.500000e-02 6.000000e-03
1.972423e+07 4.000000e-02 8.000000e-03 9.700000e-01 -5.000000e-03 9.500000e-01 -8.000000e-03 3.500000e-02 6.000000e-03
2.041738e+07 4.000000e-02 8.000000e-03 9.700000e-01 -5.000000e-03 9.500000e-01 -8.000000e-03 3.500000e-02 6.000000e-03
2.113489e+07 4.000000e-02 8.000000e-03 9.700000e-01 -5.000000e-03 9.500000e-01 -8.000000e-03 3.500000e-02 6.000000e-03
2.187762e+07 4.000000e-02 8.000000e-03 9.700000e-01 -5.000000e-03 9.500000e-01 -8.000000e-03 3.500000e-02 6.000000e-03
2.264644e+07 4.000000e-02 8.000000e-03 9.700000e-01 -5.000000e-03 9.500000e-01 -8.000000e-03 3.500000e-02 6.000000e-03
2.344229e+07 4.000000e-02 8.000000e-03 9.700000e-01 -5.000000e-03 9.500000e-01 -8.000000e-03 3.500000e-02 6.000000e-03
2.426610e+07 4.000000e-02 8.000000e-03 9.700000e-01 -5.000000e-03 9.500000e-01 -8.000000e-03 3.500000e-02 6.000000e-03
2.511886e+07 4.000000e-02 8.000000e-03 9.700000e-01 -5.000000e-03 9.500000e-01 -8.000000e-03 3.500000e-02 6.000000e-03
2.600160e+07 4.000000e-02 8.000000e-03 9.700000e-01 -5.000000e-03 9.500000e-01 -8.000000e-03 3.500000e-02 6.000000e-03
2.691535e+07 4.000000e-02 8.000000e-03 9.700000e-01 -5.000000e-03 9.500000e-01 -8.000000e-03 3.500000e-02 6.000000e-03
2.786121e+07 4.000000e-02 8.000000e-03 9.700000e-01 -5.000000e-03 9.500000e-01 -8.000000e-03 3.500000e-02 6.000000e-03
2.884032e+07 4.000000e-02 8.000000e-03 9.700000e-01 -5.000000e-03 9.500000e-01 -8.000000e-03 3.500000e-02 6.000000e-03
2.985383e+07 4.000000e-02 8.000000e-03 9.700000e-01 -5.000000e-03 9.500000e-01 -8.000000e-03 3.500000e-02 6.000000e-03
3.090295e+07 4.000000e-02 8.000000e-03 9.700000e-01 -5.000000e-03 9.500000e-01 -8.000000e-03 3.500000e-02 6.000000e-03
3.198895e+07 4.000000e-02 8.000000e-03 9.700000e-01 -5.000000e-03 9.500000e-01 -8.000000e-03 3.500000e-02 6.000000e-03
3.311311e+07 4.000000e-02 8.000000e-03 9.700000e-01 -5.000000e-03 9.500000e-01 -8.000000e-03 3.500000e-02 6.000000e-03
3.427678e+07 4.000000e-02 8.000000e-03 9.700000e-01 -5.000000e-03 9.500000e-01 -8.000000e-03 3.500000e-02 6.000000e-03
3.548134e+07 4.000000e-02 8.000000e-03 9.700000e-01 -5.000000e-03 9.500000e-01 -8.000000e-03 3.500000e-02 6.000000e-03
3.672823e+07 4.000000e-02 8.000000e-03 9.700000e-01 -5.000000e-03 9.500000e-01 -8.000000e-03 3.500000e-02 6.000000e-03
3.801894e+07 4.000000e-02 8.000000e-03 9.700000e-01 -5.000000e-03 9.500000e-01 -8.000000e-03 3.500000e-02 6.000000e-03
3.935501e+07 4.000000e-02 8.000000e-03 9.700000e-01 -5.000000e-03 9.500000e-01 -8.000000e-03 3.500000e-02 6.000000e-03
4.073803e+07 4.000000e-02 8.000000e-03 9.700000e-01 -5.000000e-03 9.500000e-01 -8.000000e-03 3.500000e-02 6.000000e-03
4.216965e+07 4.000000e-02 8.000000e-03 9.700000e-01 -5.000000e-03 9.500000e-01 -8.000000e-03 3.500000e-02 6.000000e-03
4.365158e+07 4.000000e-02 8.000000e-03 9.700000e-01 -5.000000e-03 9.500000e-01 -8.000000e-03 3.500000e-02 6.000000e-03
4.518559e+07 4.000000e-02 8.000000e-03 9.700000e-01 -5.000000e-03 9.500000e-01 -8.000000e-03 3.500000e-02 6.000000e-03
4.677351e+07 4.000000e-02 8.000000e-03 9.700000e-01 -5.000000e-03 9.500000e-01 -8.000000e-03 3.500000e-02 6.000000e-03
4.841724e+07 4.000000e-02 8.000000e-03 9.700000e-01 -5.000000e-03 9.500000e-01 -8.000000e-03 3.500000e-02 6.000000e-03
5.011872e+07 4.000000e-02 8.000000e-03 9.700000e-01 -5.000000e-03 9.500000e-01 -8.000000e-03 3.500000e-02 6.000000e-03
5.188000e+07 4.000000e-02 8.000000e-03 9.700000e-01 -5.000000e-03 9.500000e-01 -8.000000e-03 3.500000e-02 6.000000e-03
5.370318e+07 4.000000e-02 8.000000e-03 9.700000e-01 -5.000000e-03 9.500000e-01 -8.000000e-03 3.500000e-02 6.000000e-03
5.559043e+07 4.000000e-02 8.000000e-03 9.700000e-01 -5.000000e-03 9.500000e-01 -8.000000e-03 3.500000e-02 6.000000e-03
5.754399e+07 4.000000e-02 8.000000e-03 9.700000e-01 -5.000000e-03 9.500000e-01 -8.000000e-03 3.500000e-02 6.000000e-03
5.956621e+07 4.000000e-02 8.000000e-03 9.700000e-01 -5.000000e-03 9.500000e-01 -8.000000e-03 3.500000e-02 6.000000e-03
6.165950e+07 4.000000e-02 8.000000e-03 9.700000e-01 -5.000000e-03 9.500000e-01 -8.000000e-03 3.500000e-02 6.000000e-03
6.382635e+07 4.000000e-02 8.000000e-03 9.700000e-01 -5.000000e-03 9.500000e-01 -8.000000e-03 3.500000e-02 6.000000e-03
6.606934e+07 4.000000e-02 8.000000e-03 9.700000e-01 -5.000000e-03 9.500000e-01 -8.000000e-03 3.500000e-02 6.000000e-03
6.839116e+07 4.000000e-02 8.000000e-03 9.700000e-01 -5.000000e-03 9.500000e-01 -8.000000e-03 3.500000e-02 6.000000e-03
7.079458e+07 4.000000e-02 8.000000e-03 9.700000e-01 -5.000000e-03 9.500000e-01 -8.000000e-03 3.500000e-02 6.000000e-03
7.328245e+07 4.000000e-02 8.000000e-03 9.700000e-01 -5.000000e-03 9.500000e-01 -8.000000e-03 3.500000e-02 6.000000e-03
7.585776e+07 4.000000e-02 8.000000e-03 9.700000e-01 -5.000000e-03 9.500000e-01 -8.000000e-03 3.500000e-02 6.000000e-03
7.852356e+07 4.000000e-02 8.000000e-03 9.700000e-01 -5.000000e-03 9.500000e-01 -8.000000e-03 3.500000e-02 6.000000e-03
8.128305e+07 4.000000e-02 8.000000e-03 9.700000e-01 -5.000000e-03 9.500000e-01 -8.000000e-03 3.500000e-02 6.000000e-03
8.413951e+07 4.000000e-02 8.000000e-03 9.700000e-01 -5.000000e-03 9.500000e-01 -8.000000e-03 3.500000e-02 6.000000e-03
8.709636e+07 4.000000e-02 8.000000e-03 9.700000e-01 -5.000000e-03 9.500000e-01 -8.000000e-03 3.500000e-02 6.000000e-03
9.015711e+07 4.000000e-02 8.000000e-03 9.700000e-01 -5.000000e-03 9.500000e-01 -8.000000e-03 3.500000e-02 6.000000e-03
9.332543e+07 4.000000e-02 8.000000e-03 9.700000e-01 -5.000000e-03 9.500000e-01 -8.000000e-03 3.500000e-02 6.000000e-03
9.660509e+07 4.000000e-02 8.000000e-03 9.700000e-01 -5.000000e-03 9.500000e-01 -8.000000e-03 3.500000e-02 6.000000e-03
1.000000e+08 4.000000e-02 8.000000e-03 9.700000e-01 -5.000000e-03 9.500000e-01 -8.000000e-03 3.500000e-02 6.000000e-03
