! xFRA Calibration Matrix
! Type: SOLT
# HZ RI RI R 50
1.0000000000e+05 4.0000000000e-02 8.0000000000e-03 9.7000000000e-01 -5.0000000000e-03 9.5000000000e-01 -8.0000000000e-03 3.5000000000e-02 6.0000000000e-03 
1.0351420000e+05 4.0000000000e-02 8.0000000000e-03 9.7000000000e-01 -5.0000000000e-03 9.5000000000e-01 -8.0000000000e-03 3.5000000000e-02 6.0000000000e-03 
1.0715190000e+05 4.0000000000e-02 8.0000000000e-03 9.7000000000e-01 -5.0000000000e-03 9.5000000000e-01 -8.0000000000e-03 3.5000000000e-02 6.0000000000e-03 
1.1091750000e+05 4.0000000000e-02 8.0000000000e-03 9.7000000000e-01 -5.0000000000e-03 9.5000000000e-01 -8.0000000000e-03 3.5000000000e-02 6.0000000000e-03 
1.1481540000e+05 4.0000000000e-02 8.0000000000e-03 9.7000000000e-01 -5.0000000000e-03 9.5000000000e-01 -8.0000000000e-03 3.5000000000e-02 6.0000000000e-03 
1.1885020000e+05 4.0000000000e-02 8.0000000000e-03 9.7000000000e-01 -5.0000000000e-03 9.5000000000e-01 -8.0000000000e-03 3.5000000000e-02 6.0000000000e-03 
1.2302690000e+05 4.0000000000e-02 8.0000000000e-03 9.7000000000e-01 -5.0000000000e-03 9.5000000000e-01 -8.0000000000e-03 3.5000000000e-02 6.0000000000e-03 
1.2735030000e+05 4.0000000000e-02 8.0000000000e-03 9.7000000000e-01 -5.0000000000e-03 9.5000000000e-01 -8.0000000000e-03 3.5000000000e-02 6.0000000000e-03 
1.3182570000e+05 4.0000000000e-02 8.0000000000e-03 9.7000000000e-01 -5.0000000000e-03 9.5000000000e-01 -8.0000000000e-03 3.5000000000e-02 6.0000000000e-03 
1.3645830000e+05 4.0000000000e-02 8.0000000000e-03 9.7000000000e-01 -5.0000000000e-03 9.5000000000e-01 -8.0000000000e-03 3.5000000000e-02 6.0000000000e-03 
1.4125380000e+05 4.0000000000e-02 8.0000000000e-03 9.7000000000e-01 -5.0000000000e-03 9.5000000000e-01 -8.0000000000e-03 3.5000000000e-02 6.0000000000e-03 
1.4621770000e+05 4.0000000000e-02 8.0000000000e-03 9.7000000000e-01 -5.0000000000e-03 9.5000000000e-01 -8.0000000000e-03 3.5000000000e-02 6.0000000000e-03 
1.5135610000e+05 4.0000000000e-02 8.0000000000e-03 9.7000000000e-01 -5.0000000000e-03 9.5000000000e-01 -8.0000000000e-03 3.5000000000e-02 6.0000000000e-03 
1.5667510000e+05 4.0000000000e-02 8.0000000000e-03 9.7000000000e-01 -5.0000000000e-03 9.5000000000e-01 -8.0000000000e-03 3.5000000000e-02 6.0000000000e-03 
1.6218100000e+05 4.0000000000e-02 8.0000000000e-03 9.7000000000e-01 -5.0000000000e-03 9.5000000000e-01 -8.0000000000e-03 3.5000000000e-02 6.0000000000e-03 
1.6788040000e+05 4.0000000000e-02 8.0000000000e-03 9.7000000000e-01 -5.0000000000e-03 9.5000000000e-01 -8.0000000000e-03 3.5000000000e-02 6.0000000000e-03 
1.7378010000e+05 4.0000000000e-02 8.0000000000e-03 9.7000000000e-01 -5.0000000000e-03 9.5000000000e-01 -8.0000000000e-03 3.5000000000e-02 6.0000000000e-03 
1.7988710000e+05 4.0000000000e-02 8.0000000000e-03 9.7000000000e-01 -5.0000000000e-03 9.5000000000e-01 -8.0000000000e-03 3.5000000000e-02 6.0000000000e-03 
1.8620870000e+05 4.0000000000e-02 8.0000000000e-03 9.7000000000e-01 -5.0000000000e-03 9.5000000000e-01 -8.0000000000e-03 3.5000000000e-02 6.0000000000e-03 
1.9275250000e+05 4.0000000000e-02 8.0000000000e-03 9.7000000000e-01 -5.0000000000e-03 9.5000000000e-01 -8.0000000000e-03 3.5000000000e-02 6.0000000000e-03 
1.9952620000e+05 4.0000000000e-02 8.0000000000e-03 9.7000000000e-01 -5.0000000000e-03 9.5000000000e-01 -8.0000000000e-03 3.5000000000e-02 6.0000000000e-03 
2.0653800000e+05 4.0000000000e-02 8.0000000000e-03 9.7000000000e-01 -5.0000000000e-03 9.5000000000e-01 -8.0000000000e-03 3.5000000000e-02 6.0000000000e-03 
2.1379620000e+05 4.0000000000e-02 8.0000000000e-03 9.7000000000e-01 -5.0000000000e-03 9.5000000000e-01 -8.0000000000e-03 3.5000000000e-02 6.0000000000e-03 
2.2130950000e+05 4.0000000000e-02 8.0000000000e-03 9.7000000000e-01 -5.0000000000e-03 9.5000000000e-01 -8.0000000000e-03 3.5000000000e-02 6.0000000000e-03 
2.2908680000e+05 4.0000000000e-02 8.0000000000e-03 9.7000000000e-01 -5.0000000000e-03 9.5000000000e-01 -8.0000000000e-03 3.5000000000e-02 6.0000000000e-03 
2.3713740000e+05 4.0000000000e-02 8.0000000000e-03 9.7000000000e-01 -5.0000000000e-03 9.5000000000e-01 -8.0000000000e-03 3.5000000000e-02 6.0000000000e-03 
2.4547090000e+05 4.0000000000e-02 8.0000000000e-03 9.7000000000e-01 -5.0000000000e-03 9.5000000000e-01 -8.0000000000e-03 3.5000000000e-02 6.0000000000e-03 
2.5409730000e+05 4.0000000000e-02 8.0000000000e-03 9.7000000000e-01 -5.0000000000e-03 9.5000000000e-01 -8.0000000000e-03 3.5000000000e-02 6.0000000000e-03 
2.6302680000e+05 4.0000000000e-02 8.0000000000e-03 9.7000000000e-01 -5.0000000000e-03 9.5000000000e-01 -8.0000000000e-03 3.5000000000e-02 6.0000000000e-03 
2.7227010000e+05 4.0000000000e-02 8.0000000000e-03 9.7000000000e-01 -5.0000000000e-03 9.5000000000e-01 -8.0000000000e-03 3.5000000000e-02 6.0000000000e-03 
2.8183830000e+05 4.0000000000e-02 8.0000000000e-03 9.7000000000e-01 -5.0000000000e-03 9.5000000000e-01 -8.0000000000e-03 3.5000000000e-02 6.0000000000e-03 
2.9174270000e+05 4.0000000000e-02 8.0000000000e-03 9.7000000000e-01 -5.0000000000e-03 9.5000000000e-01 -8.0000000000e-03 3.5000000000e-02 6.0000000000e-03 
3.0199520000e+05 4.0000000000e-02 8.0000000000e-03 9.7000000000e-01 -5.0000000000e-03 9.5000000000e-01 -8.0000000000e-03 3.5000000000e-02 6.0000000000e-03 
3.1260790000e+05 4.0000000000e-02 8.0000000000e-03 9.7000000000e-01 -5.0000000000e-03 9.5000000000e-01 -8.0000000000e-03 3.5000000000e-02 6.0000000000e-03 
3.2359370000e+05 4.0000000000e-02 8.0000000000e-03 9.7000000000e-01 -5.0000000000e-03 9.5000000000e-01 -8.0000000000e-03 3.5000000000e-02 6.0000000000e-03 
3.3496540000e+05 4.0000000000e-02 8.0000000000e-03 9.7000000000e-01 -5.0000000000e-03 9.5000000000e-01 -8.0000000000e-03 3.5000000000e-02 6.0000000000e-03 
3.4673690000e+05 4.0000000000e-02 8.0000000000e-03 9.7000000000e-01 -5.0000000000e-03 9.5000000000e-01 -8.0000000000e-03 3.5000000000e-02 6.0000000000e-03 
3.5892190000e+05 4.0000000000e-02 8.0000000000e-03 9.7000000000e-01 -5.0000000000e-03 9.5000000000e-01 -8.0000000000e-03 3.5000000000e-02 6.0000000000e-03 
3.7153520000e+05 4.0000000000e-02 8.0000000000e-03 9.7000000000e-01 -5.0000000000e-03 9.5000000000e-01 -8.0000000000e-03 3.5000000000e-02 6.0000000000e-03 
3.8459180000e+05 4.0000000000e-02 8.0000000000e-03 9.7000000000e-01 -5.0000000000e-03 9.5000000000e-01 -8.0000000000e-03 3.5000000000e-02 6.0000000000e-03 
3.9810720000e+05 4.0000000000e-02 8.0000000000e-03 9.7000000000e-01 -5.0000000000e-03 9.5000000000e-01 -8.0000000000e-03 3.5000000000e-02 6.0000000000e-03 
4.1209750000e+05 4.0000000000e-02 8.0000000000e-03 9.7000000000e-01 -5.0000000000e-03 9.5000000000e-01 -8.0000000000e-03 3.5000000000e-02 6.0000000000e-03 
4.2657950000e+05 4.0000000000e-02 8.0000000000e-03 9.7000000000e-01 -5.0000000000e-03 9.5000000000e-01 -8.0000000000e-03 3.5000000000e-02 6.0000000000e-03 
4.4157040000e+05 4.0000000000e-02 8.0000000000e-03 9.7000000000e-01 -5.0000000000e-03 9.5000000000e-01 -8.0000000000e-03 3.5000000000e-02 6.0000000000e-03 
4.5708820000e+05 4.0000000000e-02 8.0000000000e-03 9.7000000000e-01 -5.0000000000e-03 9.5000000000e-01 -8.0000000000e-03 3.5000000000e-02 6.0000000000e-03 
4.7315130000e+05 4.0000000000e-02 8.0000000000e-03 9.7000000000e-01 -5.0000000000e-03 9.5000000000e-01 -8.0000000000e-03 3.5000000000e-02 6.0000000000e-03 
4.8977880000e+05 4.0000000000e-02 8.0000000000e-03 9.7000000000e-01 -5.0000000000e-03 9.5000000000e-01 -8.0000000000e-03 3.5000000000e-02 6.0000000000e-03 
5.0699070000e+05 4.0000000000e-02 8.0000000000e-03 9.7000000000e-01 -5.0000000000e-03 9.5000000000e-01 -8.0000000000e-03 3.5000000000e-02 6.0000000000e-03 
5.2480750000e+05 4.0000000000e-02 8.0000000000e-03 9.7000000000e-01 -5.0000000000e-03 9.5000000000e-01 -8.0000000000e-03 3.5000000000e-02 6.0000000000e-03 
5.4325030000e+05 4.0000000000e-02 8.0000000000e-03 9.7000000000e-01 -5.0000000000e-03 9.5000000000e-01 -8.0000000000e-03 3.5000000000e-02 6.0000000000e-03 
5.6234130000e+05 4.0000000000e-02 8.0000000000e-03 9.7000000000e-01 -5.0000000000e-03 9.5000000000e-01 -8.0000000000e-03 3.5000000000e-02 6.0000000000e-03 
5.8210320000e+05 4.0000000000e-02 8.0000000000e-03 9.7000000000e-01 -5.0000000000e-03 9.5000000000e-01 -8.0000000000e-03 3.5000000000e-02 6.0000000000e-03 
6.0255960000e+05 4.0000000000e-02 8.0000000000e-03 9.7000000000e-01 -5.0000000000e-03 9.5000000000e-01 -8.0000000000e-03 3.5000000000e-02 6.0000000000e-03 
6.2373480000e+05 4.0000000000e-02 8.0000000000e-03 9.7000000000e-01 -5.0000000000e-03 9.5000000000e-01 -8.0000000000e-03 3.5000000000e-02 6.0000000000e-03 
6.4565420000e+05 4.0000000000e-02 8.0000000000e-03 9.7000000000e-01 -5.0000000000e-03 9.5000000000e-01 -8.0000000000e-03 3.5000000000e-02 6.0000000000e-03 
6.6834390000e+05 4.0000000000e-02 8.0000000000e-03 9.7000000000e-01 -5.0000000000e-03 9.5000000000e-01 -8.0000000000e-03 3.5000000000e-02 6.0000000000e-03 
6.9183100000e+05 4.0000000000e-02 8.0000000000e-03 9.7000000000e-01 -5.0000000000e-03 9.5000000000e-01 -8.0000000000e-03 3.5000000000e-02 6.0000000000e-03 
7.1614340000e+05 4.0000000000e-02 8.0000000000e-03 9.7000000000e-01 -5.0000000000e-03 9.5000000000e-01 -8.0000000000e-03 3.5000000000e-02 6.0000000000e-03 
7.4131020000e+05 4.0000000000e-02 8.0000000000e-03 9.7000000000e-01 -5.0000000000e-03 9.5000000000e-01 -8.0000000000e-03 3.5000000000e-02 6.0000000000e-03 
7.6736150000e+05 4.0000000000e-02 8.0000000000e-03 9.7000000000e-01 -5.0000000000e-03 9.5000000000e-01 -8.0000000000e-03 3.5000000000e-02 6.0000000000e-03 
7.9432820000e+05 4.0000000000e-02 8.0000000000e-03 9.7000000000e-01 -5.0000000000e-03 9.5000000000e-01 -8.0000000000e-03 3.5000000000e-02 6.0000000000e-03 
8.2224260000e+05 4.0000000000e-02 8.0000000000e-03 9.7000000000e-01 -5.0000000000e-03 9.5000000000e-01 -8.0000000000e-03 3.5000000000e-02 6.0000000000e-03 
8.5113800000e+05 4.0000000000e-02 8.0000000000e-03 9.7000000000e-01 -5.0000000000e-03 9.5000000000e-01 -8.0000000000e-03 3.5000000000e-02 6.0000000000e-03 
8.8104890000e+05 4.0000000000e-02 8.0000000000e-03 9.7000000000e-01 -5.0000000000e-03 9.5000000000e-01 -8.0000000000e-03 3.5000000000e-02 6.0000000000e-03 
9.1201080000e+05 4.0000000000e-02 8.0000000000e-03 9.7000000000e-01 -5.0000000000e-03 9.5000000000e-01 -8.0000000000e-03 3.5000000000e-02 6.0000000000e-03 
9.4406090000e+05 4.0000000000e-02 8.0000000000e-03 9.7000000000e-01 -5.0000000000e-03 9.5000000000e-01 -8.0000000000e-03 3.5000000000e-02 6.0000000000e-03 
9.7723720000e+05 4.0000000000e-02 8.0000000000e-03 9.7000000000e-01 -5.0000000000e-03 9.5000000000e-01 -8.0000000000e-03 3.5000000000e-02 6.0000000000e-03 
1.0115790000e+06 4.0000000000e-02 8.0000000000e-03 9.7000000000e-01 -5.0000000000e-03 9.5000000000e-01 -8.0000000000e-03 3.5000000000e-02 6.0000000000e-03 
1.0471290000e+06 4.0000000000e-02 8.0000000000e-03 9.7000000000e-01 -5.0000000000e-03 9.5000000000e-01 -8.0000000000e-03 3.5000000000e-02 6.0000000000e-03 
1.0839270000e+06 4.0000000000e-02 8.0000000000e-03 9.7000000000e-01 -5.0000000000e-03 9.5000000000e-01 -8.0000000000e-03 3.5000000000e-02 6.0000000000e-03 
1.1220180000e+06 4.0000000000e-02 8.0000000000e-03 9.7000000000e-01 -5.0000000000e-03 9.5000000000e-01 -8.0000000000e-03 3.5000000000e-02 6.0000000000e-03 
1.1614490000e+06 4.0000000000e-02 8.0000000000e-03 9.7000000000e-01 -5.0000000000e-03 9.5000000000e-01 -8.0000000000e-03 3.5000000000e-02 6.0000000000e-03 
1.2022640000e+06 4.0000000000e-02 8.0000000000e-03 9.7000000000e-01 -5.0000000000e-03 9.5000000000e-01 -8.0000000000e-03 3.5000000000e-02 6.0000000000e-03 
1.2445150000e+06 4.0000000000e-02 8.0000000000e-03 9.7000000000e-01 -5.0000000000e-03 9.5000000000e-01 -8.0000000000e-03 3.5000000000e-02 6.0000000000e-03 
1.2882500000e+06 4.0000000000e-02 8.0000000000e-03 9.7000000000e-01 -5.0000000000e-03 9.5000000000e-01 -8.0000000000e-03 3.5000000000e-02 6.0000000000e-03 
1.3335210000e+06 4.0000000000e-02 8.0000000000e-03 9.7000000000e-01 -5.0000000000e-03 9.5000000000e-01 -8.0000000000e-03 3.5000000000e-02 6.0000000000e-03 
1.3803840000e+06 4.0000000000e-02 8.0000000000e-03 9.7000000000e-01 -5.0000000000e-03 9.5000000000e-01 -8.0000000000e-03 3.5000000000e-02 6.0000000000e-03 
1.4288940000e+06 4.0000000000e-02 8.0000000000e-03 9.7000000000e-01 -5.0000000000e-03 9.5000000000e-01 -8.0000000000e-03 3.5000000000e-02 6.0000000000e-03 
1.4791080000e+06 4.0000000000e-02 8.0000000000e-03 9.7000000000e-01 -5.0000000000e-03 9.5000000000e-01 -8.0000000000e-03 3.5000000000e-02 6.0000000000e-03 
1.5310870000e+06 4.0000000000e-02 8.0000000000e-03 9.7000000000e-01 -5.0000000000e-03 9.5000000000e-01 -8.0000000000e-03 3.5000000000e-02 6.0000000000e-03 
1.5848930000e+06 4.0000000000e-02 8.0000000000e-03 9.7000000000e-01 -5.0000000000e-03 9.5000000000e-01 -8.0000000000e-03 3.5000000000e-02 6.0000000000e-03 
1.6405900000e+06 4.0000000000e-02 8.0000000000e-03 9.7000000000e-01 -5.0000000000e-03 9.5000000000e-01 -8.0000000000e-03 3.5000000000e-02 6.0000000000e-03 
1.6982440000e+06 4.0000000000e-02 8.0000000000e-03 9.7000000000e-01 -5.0000000000e-03 9.5000000000e-01 -8.0000000000e-03 3.5000000000e-02 6.0000000000e-03 
1.7579240000e+06 4.0000000000e-02 8.0000000000e-03 9.7000000000e-01 -5.0000000000e-03 9.5000000000e-01 -8.0000000000e-03 3.5000000000e-02 6.0000000000e-03 
1.8197010000e+06 4.0000000000e-02 8.0000000000e-03 9.7000000000e-01 -5.0000000000e-03 9.5000000000e-01 -8.0000000000e-03 3.5000000000e-02 6.0000000000e-03 
1.8836490000e+06 4.0000000000e-02 8.0000000000e-03 9.7000000000e-01 -5.0000000000e-03 9.5000000000e-01 -8.0000000000e-03 3.5000000000e-02 6.0000000000e-03 
1.9498450000e+06 4.0000000000e-02 8.0000000000e-03 9.7000000000e-01 -5.0000000000e-03 9.5000000000e-01 -8.0000000000e-03 3.5000000000e-02 6.0000000000e-03 
2.0183660000e+06 4.0000000000e-02 8.0000000000e-03 9.7000000000e-01 -5.0000000000e-03 9.5000000000e-01 -8.0000000000e-03 3.5000000000e-02 6.0000000000e-03 
2.0892960000e+06 4.0000000000e-02 8.0000000000e-03 9.7000000000e-01 -5.0000000000e-03 9.5000000000e-01 -8.0000000000e-03 3.5000000000e-02 6.0000000000e-03 
2.1627190000e+06 4.0000000000e-02 8.0000000000e-03 9.7000000000e-01 -5.0000000000e-03 9.5000000000e-01 -8.0000000000e-03 3.5000000000e-02 6.0000000000e-03 
2.2387210000e+06 4.0000000000e-02 8.0000000000e-03 9.7000000000e-01 -5.0000000000e-03 9.5000000000e-01 -8.0000000000e-03 3.5000000000e-02 6.0000000000e-03 
2.3173950000e+06 4.0000000000e-02 8.0000000000e-03 9.7000000000e-01 -5.0000000000e-03 9.5000000000e-01 -8.0000000000e-03 3.5000000000e-02 6.0000000000e-03 
2.3988330000e+06 4.0000000000e-02 8.0000000000e-03 9.7000000000e-01 -5.0000000000e-03 9.5000000000e-01 -8.0000000000e-03 3.5000000000e-02 6.0000000000e-03 
2.4831330000e+06 4.0000000000e-02 8.0000000000e-03 9.7000000000e-01 -5.0000000000e-03 9.5000000000e-01 -8.0000000000e-03 3.5000000000e-02 6.0000000000e-03 
2.5703960000e+06 4.0000000000e-02 8.0000000000e-03 9.7000000000e-01 -5.0000000000e-03 9.5000000000e-01 -8.0000000000e-03 3.5000000000e-02 6.0000000000e-03 
2.6607250000e+06 4.0000000000e-02 8.0000000000e-03 9.7000000000e-01 -5.0000000000e-03 9.5000000000e-01 -8.0000000000e-03 3.5000000000e-02 6.0000000000e-03 
2.7542290000e+06 4.0000000000e-02 8.0000000000e-03 9.7000000000e-01 -5.0000000000e-03 9.5000000000e-01 -8.0000000000e-03 3.5000000000e-02 6.0000000000e-03 
2.8510180000e+06 4.0000000000e-02 8.0000000000e-03 9.7000000000e-01 -5.0000000000e-03 9.5000000000e-01 -8.0000000000e-03 3.5000000000e-02 6.0000000000e-03 
2.9512090000e+06 4.0000000000e-02 8.0000000000e-03 9.7000000000e-01 -5.0000000000e-03 9.5000000000e-01 -8.0000000000e-03 3.5000000000e-02 6.0000000000e-03 
3.0549210000e+06 4.0000000000e-02 8.0000000000e-03 9.7000000000e-01 -5.0000000000e-03 9.5000000000e-01 -8.0000000000e-03 3.5000000000e-02 6.0000000000e-03 
3.1622780000e+06 4.0000000000e-02 8.0000000000e-03 9.7000000000e-01 -5.0000000000e-03 9.5000000000e-01 -8.0000000000e-03 3.5000000000e-02 6.0000000000e-03 
3.2734070000e+06 4.0000000000e-02 8.0000000000e-03 9.7000000000e-01 -5.0000000000e-03 9.5000000000e-01 -8.0000000000e-03 3.5000000000e-02 6.0000000000e-03 
3.3884420000e+06 4.0000000000e-02 8.0000000000e-03 9.7000000000e-01 -5.0000000000e-03 9.5000000000e-01 -8.0000000000e-03 3.5000000000e-02 6.0000000000e-03 
3.5075190000e+06 4.0000000000e-02 8.0000000000e-03 9.7000000000e-01 -5.0000000000e-03 9.5000000000e-01 -8.0000000000e-03 3.5000000000e-02 6.0000000000e-03 
3.6307810000e+06 4.0000000000e-02 8.0000000000e-03 9.7000000000e-01 -5.0000000000e-03 9.5000000000e-01 -8.0000000000e-03 3.5000000000e-02 6.0000000000e-03 
3.7583740000e+06 4.0000000000e-02 8.0000000000e-03 9.7000000000e-01 -5.0000000000e-03 9.5000000000e-01 -8.0000000000e-03 3.5000000000e-02 6.0000000000e-03 
3.8904510000e+06 4.0000000000e-02 8.0000000000e-03 9.7000000000e-01 -5.0000000000e-03 9.5000000000e-01 -8.0000000000e-03 3.5000000000e-02 6.0000000000e-03 
4.0271700000e+06 4.0000000000e-02 8.0000000000e-03 9.7000000000e-01 -5.0000000000e-03 9.5000000000e-01 -8.0000000000e-03 3.5000000000e-02 6.0000000000e-03 
4.1686940000e+06 4.0000000000e-02 8.0000000000e-03 9.7000000000e-01 -5.0000000000e-03 9.5000000000e-01 -8.0000000000e-03 3.5000000000e-02 6.0000000000e-03 
4.3151910000e+06 4.0000000000e-02 8.0000000000e-03 9.7000000000e-01 -5.0000000000e-03 9.5000000000e-01 -8.0000000000e-03 3.5000000000e-02 6.0000000000e-03 
4.4668360000e+06 4.0000000000e-02 8.0000000000e-03 9.7000000000e-01 -5.0000000000e-03 9.5000000000e-01 -8.0000000000e-03 3.5000000000e-02 6.0000000000e-03 
4.6238100000e+06 4.0000000000e-02 8.0000000000e-03 9.7000000000e-01 -5.0000000000e-03 9.5000000000e-01 -8.0000000000e-03 3.5000000000e-02 6.0000000000e-03 
4.7863010000e+06 4.0000000000e-02 8.0000000000e-03 9.7000000000e-01 -5.0000000000e-03 9.5000000000e-01 -8.0000000000e-03 3.5000000000e-02 6.0000000000e-03 
4.9545020000e+06 4.0000000000e-02 8.0000000000e-03 9.7000000000e-01 -5.0000000000e-03 9.5000000000e-01 -8.0000000000e-03 3.5000000000e-02 6.0000000000e-03 
5.1286140000e+06 4.0000000000e-02 8.0000000000e-03 9.7000000000e-01 -5.0000000000e-03 9.5000000000e-01 -8.0000000000e-03 3.5000000000e-02 6.0000000000e-03 
5.3088440000e+06 4.0000000000e-02 8.0000000000e-03 9.7000000000e-01 -5.0000000000e-03 9.5000000000e-01 -8.0000000000e-03 3.5000000000e-02 6.0000000000e-03 
5.4954090000e+06 4.0000000000e-02 8.0000000000e-03 9.7000000000e-01 -5.0000000000e-03 9.5000000000e-01 -8.0000000000e-03 3.5000000000e-02 6.0000000000e-03 
5.6885290000e+06 4.0000000000e-02 8.0000000000e-03 9.7000000000e-01 -5.0000000000e-03 9.5000000000e-01 -8.0000000000e-03 3.5000000000e-02 6.0000000000e-03 
5.8884370000e+06 4.0000000000e-02 8.0000000000e-03 9.7000000000e-01 -5.0000000000e-03 9.5000000000e-01 -8.0000000000e-03 3.5000000000e-02 6.0000000000e-03 
6.0953690000e+06 4.0000000000e-02 8.0000000000e-03 9.7000000000e-01 -5.0000000000e-03 9.5000000000e-01 -8.0000000000e-03 3.5000000000e-02 6.0000000000e-03 
6.3095730000e+06 4.0000000000e-02 8.0000000000e-03 9.7000000000e-01 -5.0000000000e-03 9.5000000000e-01 -8.0000000000e-03 3.5000000000e-02 6.0000000000e-03 
6.5313060000e+06 4.0000000000e-02 8.0000000000e-03 9.7000000000e-01 -5.0000000000e-03 9.5000000000e-01 -8.0000000000e-03 3.5000000000e-02 6.0000000000e-03 
6.7608300000e+06 4.0000000000e-02 8.0000000000e-03 9.7000000000e-01 -5.0000000000e-03 9.5000000000e-01 -8.0000000000e-03 3.5000000000e-02 6.0000000000e-03 
6.9984200000e+06 4.0000000000e-02 8.0000000000e-03 9.7000000000e-01 -5.0000000000e-03 9.5000000000e-01 -8.0000000000e-03 3.5000000000e-02 6.0000000000e-03 
7.2443600000e+06 4.0000000000e-02 8.0000000000e-03 9.7000000000e-01 -5.0000000000e-03 9.5000000000e-01 -8.0000000000e-03 3.5000000000e-02 6.0000000000e-03 
7.4989420000e+06 4.0000000000e-02 8.0000000000e-03 9.7000000000e-01 -5.0000000000e-03 9.5000000000e-01 -8.0000000000e-03 3.5000000000e-02 6.0000000000e-03 
7.7624710000e+06 4.0000000000e-02 8.0000000000e-03 9.7000000000e-01 -5.0000000000e-03 9.5000000000e-01 -8.0000000000e-03 3.5000000000e-02 6.0000000000e-03 
8.0352610000e+06 4.0000000000e-02 8.0000000000e-03 9.7000000000e-01 -5.0000000000e-03 9.5000000000e-01 -8.0000000000e-03 3.5000000000e-02 6.0000000000e-03 
8.3176380000e+06 4.0000000000e-02 8.0000000000e-03 9.7000000000e-01 -5.0000000000e-03 9.5000000000e-01 -8.0000000000e-03 3.5000000000e-02 6.0000000000e-03 
8.6099380000e+06 4.0000000000e-02 8.0000000000e-03 9.7000000000e-01 -5.0000000000e-03 9.5000000000e-01 -8.0000000000e-03 3.5000000000e-02 6.0000000000e-03 
8.9125090000e+06 4.0000000000e-02 8.0000000000e-03 9.7000000000e-01 -5.0000000000e-03 9.5000000000e-01 -8.0000000000e-03 3.5000000000e-02 6.0000000000e-03 
9.2257140000e+06 4.0000000000e-02 8.0000000000e-03 9.7000000000e-01 -5.0000000000e-03 9.5000000000e-01 -8.0000000000e-03 3.5000000000e-02 6.0000000000e-03 
9.5499260000e+06 4.0000000000e-02 8.0000000000e-03 9.7000000000e-01 -5.0000000000e-03 9.5000000000e-01 -8.0000000000e-03 3.5000000000e-02 6.0000000000e-03 
9.8855310000e+06 4.0000000000e-02 8.0000000000e-03 9.7000000000e-01 -5.0000000000e-03 9.5000000000e-01 -8.0000000000e-03 3.5000000000e-02 6.0000000000e-03 
1.0232930000e+07 4.0000000000e-02 8.0000000000e-03 9.7000000000e-01 -5.0000000000e-03 9.5000000000e-01 -8.0000000000e-03 3.5000000000e-02 6.0000000000e-03 
1.0592540000e+07 4.0000000000e-02 8.0000000000e-03 9.7000000000e-01 -5.0000000000e-03 9.5000000000e-01 -8.0000000000e-03 3.5000000000e-02 6.0000000000e-03 
1.0964780000e+07 4.0000000000e-02 8.0000000000e-03 9.7000000000e-01 -5.0000000000e-03 9.5000000000e-01 -8.0000000000e-03 3.5000000000e-02 6.0000000000e-03 
1.1350110000e+07 4.0000000000e-02 8.0000000000e-03 9.7000000000e-01 -5.0000000000e-03 9.5000000000e-01 -8.0000000000e-03 3.5000000000e-02 6.0000000000e-03 
1.1748980000e+07 4.0000000000e-02 8.0000000000e-03 9.7000000000e-01 -5.0000000000e-03 9.5000000000e-01 -8.0000000000e-03 3.5000000000e-02 6.0000000000e-03 
1.2161860000e+07 4.0000000000e-02 8.0000000000e-03 9.7000000000e-01 -5.0000000000e-03 9.5000000000e-01 -8.0000000000e-03 3.5000000000e-02 6.0000000000e-03 
1.2589250000e+07 4.0000000000e-02 8.0000000000e-03 9.7000000000e-01 -5.0000000000e-03 9.5000000000e-01 -8.0000000000e-03 3.5000000000e-02 6.0000000000e-03 
1.3031670000e+07 4.0000000000e-02 8.0000000000e-03 9.7000000000e-01 -5.0000000000e-03 9.5000000000e-01 -8.0000000000e-03 3.5000000000e-02 6.0000000000e-03 
1.3489630000e+07 4.0000000000e-02 8.0000000000e-03 9.7000000000e-01 -5.0000000000e-03 9.5000000000e-01 -8.0000000000e-03 3.5000000000e-02 6.0000000000e-03 
1.3963680000e+07 4.0000000000e-02 8.0000000000e-03 9.7000000000e-01 -5.0000000000e-03 9.5000000000e-01 -8.0000000000e-03 3.5000000000e-02 6.0000000000e-03 
1.4454400000e+07 4.0000000000e-02 8.0000000000e-03 9.7000000000e-01 -5.0000000000e-03 9.5000000000e-01 -8.0000000000e-03 3.5000000000e-02 6.0000000000e-03 
1.4962360000e+07 4.0000000000e-02 8.0000000000e-03 9.7000000000e-01 -5.0000000000e-03 9.5000000000e-01 -8.0000000000e-03 3.5000000000e-02 6.0000000000e-03 
1.5488170000e+07 4.0000000000e-02 8.0000000000e-03 9.7000000000e-01 -5.0000000000e-03 9.5000000000e-01 -8.0000000000e-03 3.5000000000e-02 6.0000000000e-03 
1.6032450000e+07 4.0000000000e-02 8.0000000000e-03 9.7000000000e-01 -5.0000000000e-03 9.5000000000e-01 -8.0000000000e-03 3.5000000000e-02 6.0000000000e-03 
1.6595870000e+07 4.0000000000e-02 8.0000000000e-03 9.7000000000e-01 -5.0000000000e-03 9.5000000000e-01 -8.0000000000e-03 3.5000000000e-02 6.0000000000e-03 
1.7179080000e+07 4.0000000000e-02 8.0000000000e-03 9.7000000000e-01 -5.0000000000e-03 9.5000000000e-01 -8.0000000000e-03 3.5000000000e-02 6.0000000000e-03 
1.7782790000e+07 4.0000000000e-02 8.0000000000e-03 9.7000000000e-01 -5.0000000000e-03 9.5000000000e-01 -8.0000000000e-03 3.5000000000e-02 6.0000000000e-03 
1.8407720000e+07 4.0000000000e-02 8.0000000000e-03 9.7000000000e-01 -5.0000000000e-03 9.5000000000e-01 -8.0000000000e-03 3.5000000000e-02 6.0000000000e-03 
1.9054610000e+07 4.0000000000e-02 8.0000000000e-03 9.7000000000e-01 -5.0000000000e-03 9.5000000000e-01 -8.0000000000e-03 3.5000000000e-02 6.0000000000e-03 
1.9724230000e+07 4.0000000000e-02 8.0000000000e-03 9.7000000000e-01 -5.0000000000e-03 9.5000000000e-01 -8.0000000000e-03 3.5000000000e-02 6.0000000000e-03 
2.0417380000e+07 4.0000000000e-02 8.0000000000e-03 9.7000000000e-01 -5.0000000000e-03 9.5000000000e-01 -8.0000000000e-03 3.5000000000e-02 6.0000000000e-03 
2.1134890000e+07 4.0000000000e-02 8.0000000000e-03 9.7000000000e-01 -5.0000000000e-03 9.5000000000e-01 -8.0000000000e-03 3.5000000000e-02 6.0000000000e-03 
2.1877620000e+07 4.0000000000e-02 8.0000000000e-03 9.7000000000e-01 -5.0000000000e-03 9.5000000000e-01 -8.0000000000e-03 3.5000000000e-02 6.0000000000e-03 
2.2646440000e+07 4.0000000000e-02 8.0000000000e-03 9.7000000000e-01 -5.0000000000e-03 9.5000000000e-01 -8.0000000000e-03 3.5000000000e-02 6.0000000000e-03 
2.3442290000e+07 4.0000000000e-02 8.0000000000e-03 9.7000000000e-01 -5.0000000000e-03 9.5000000000e-01 -8.0000000000e-03 3.5000000000e-02 6.0000000000e-03 
2.4266100000e+07 4.0000000000e-02 8.0000000000e-03 9.7000000000e-01 -5.0000000000e-03 9.5000000000e-01 -8.0000000000e-03 3.5000000000e-02 6.0000000000e-03 
2.5118860000e+07 4.0000000000e-02 8.0000000000e-03 9.7000000000e-01 -5.0000000000e-03 9.5000000000e-01 -8.0000000000e-03 3.5000000000e-02 6.0000000000e-03 
2.6001600000e+07 4.0000000000e-02 8.0000000000e-03 9.7000000000e-01 -5.0000000000e-03 9.5000000000e-01 -8.0000000000e-03 3.5000000000e-02 6.0000000000e-03 
2.6915350000e+07 4.0000000000e-02 8.0000000000e-03 9.7000000000e-01 -5.0000000000e-03 9.5000000000e-01 -8.0000000000e-03 3.5000000000e-02 6.0000000000e-03 
2.7861210000e+07 4.0000000000e-02 8.0000000000e-03 9.7000000000e-01 -5.0000000000e-03 9.5000000000e-01 -8.0000000000e-03 3.5000000000e-02 6.0000000000e-03 
2.8840320000e+07 4.0000000000e-02 8.0000000000e-03 9.7000000000e-01 -5.0000000000e-03 9.5000000000e-01 -8.0000000000e-03 3.5000000000e-02 6.0000000000e-03 
2.9853830000e+07 4.0000000000e-02 8.0000000000e-03 9.7000000000e-01 -5.0000000000e-03 9.5000000000e-01 -8.0000000000e-03 3.5000000000e-02 6.0000000000e-03 
3.0902950000e+07 4.0000000000e-02 8.0000000000e-03 9.7000000000e-01 -5.0000000000e-03 9.5000000000e-01 -8.0000000000e-03 3.5000000000e-02 6.0000000000e-03 
3.1988950000e+07 4.0000000000e-02 8.0000000000e-03 9.7000000000e-01 -5.0000000000e-03 9.5000000000e-01 -8.0000000000e-03 3.5000000000e-02 6.0000000000e-03 
3.3113110000e+07 4.0000000000e-02 8.0000000000e-03 9.7000000000e-01 -5.0000000000e-03 9.5000000000e-01 -8.0000000000e-03 3.5000000000e-02 6.0000000000e-03 
3.4276780000e+07 4.0000000000e-02 8.0000000000e-03 9.7000000000e-01 -5.0000000000e-03 9.5000000000e-01 -8.0000000000e-03 3.5000000000e-02 6.0000000000e-03 
3.5481340000e+07 4.0000000000e-02 8.0000000000e-03 9.7000000000e-01 -5.0000000000e-03 9.5000000000e-01 -8.0000000000e-03 3.5000000000e-02 6.0000000000e-03 
3.6728230000e+07 4.0000000000e-02 8.0000000000e-03 9.7000000000e-01 -5.0000000000e-03 9.5000000000e-01 -8.0000000000e-03 3.5000000000e-02 6.0000000000e-03 
3.8018940000e+07 4.0000000000e-02 8.0000000000e-03 9.7000000000e-01 -5.0000000000e-03 9.5000000000e-01 -8.0000000000e-03 3.5000000000e-02 6.0000000000e-03 
3.9355010000e+07 4.0000000000e-02 8.0000000000e-03 9.7000000000e-01 -5.0000000000e-03 9.5000000000e-01 -8.0000000000e-03 3.5000000000e-02 6.0000000000e-03 
4.0738030000e+07 4.0000000000e-02 8.0000000000e-03 9.7000000000e-01 -5.0000000000e-03 9.5000000000e-01 -8.0000000000e-03 3.5000000000e-02 6.0000000000e-03 
4.2169650000e+07 4.0000000000e-02 8.0000000000e-03 9.7000000000e-01 -5.0000000000e-03 9.5000000000e-01 -8.0000000000e-03 3.5000000000e-02 6.0000000000e-03 
4.3651580000e+07 4.0000000000e-02 8.0000000000e-03 9.7000000000e-01 -5.0000000000e-03 9.5000000000e-01 -8.0000000000e-03 3.5000000000e-02 6.0000000000e-03 
4.5185590000e+07 4.0000000000e-02 8.0000000000e-03 9.7000000000e-01 -5.0000000000e-03 9.5000000000e-01 -8.0000000000e-03 3.5000000000e-02 6.0000000000e-03 
4.6773510000e+07 4.0000000000e-02 8.0000000000e-03 9.7000000000e-01 -5.0000000000e-03 9.5000000000e-01 -8.0000000000e-03 3.5000000000e-02 6.0000000000e-03 
4.8417240000e+07 4.0000000000e-02 8.0000000000e-03 9.7000000000e-01 -5.0000000000e-03 9.5000000000e-01 -8.0000000000e-03 3.5000000000e-02 6.0000000000e-03 
5.0118720000e+07 4.0000000000e-02 8.0000000000e-03 9.7000000000e-01 -5.0000000000e-03 9.5000000000e-01 -8.0000000000e-03 3.5000000000e-02 6.0000000000e-03 
5.1880000000e+07 4.0000000000e-02 8.0000000000e-03 9.7000000000e-01 -5.0000000000e-03 9.5000000000e-01 -8.0000000000e-03 3.5000000000e-02 6.0000000000e-03 
5.3703180000e+07 4.0000000000e-02 8.0000000000e-03 9.7000000000e-01 -5.0000000000e-03 9.5000000000e-01 -8.0000000000e-03 3.5000000000e-02 6.0000000000e-03 
5.5590430000e+07 4.0000000000e-02 8.0000000000e-03 9.7000000000e-01 -5.0000000000e-03 9.5000000000e-01 -8.0000000000e-03 3.5000000000e-02 6.0000000000e-03 
5.7543990000e+07 4.0000000000e-02 8.0000000000e-03 9.7000000000e-01 -5.0000000000e-03 9.5000000000e-01 -8.0000000000e-03 3.5000000000e-02 6.0000000000e-03 
5.9566210000e+07 4.0000000000e-02 8.0000000000e-03 9.7000000000e-01 -5.0000000000e-03 9.5000000000e-01 -8.0000000000e-03 3.5000000000e-02 6.0000000000e-03 
6.1659500000e+07 4.0000000000e-02 8.0000000000e-03 9.7000000000e-01 -5.0000000000e-03 9.5000000000e-01 -8.0000000000e-03 3.5000000000e-02 6.0000000000e-03 
6.3826350000e+07 4.0000000000e-02 8.0000000000e-03 9.7000000000e-01 -5.0000000000e-03 9.5000000000e-01 -8.0000000000e-03 3.5000000000e-02 6.0000000000e-03 
6.6069340000e+07 4.0000000000e-02 8.0000000000e-03 9.7000000000e-01 -5.0000000000e-03 9.5000000000e-01 -8.0000000000e-03 3.5000000000e-02 6.0000000000e-03 
6.8391160000e+07 4.0000000000e-02 8.0000000000e-03 9.7000000000e-01 -5.0000000000e-03 9.5000000000e-01 -8.0000000000e-03 3.5000000000e-02 6.0000000000e-03 
7.0794580000e+07 4.0000000000e-02 8.0000000000e-03 9.7000000000e-01 -5.0000000000e-03 9.5000000000e-01 -8.0000000000e-03 3.5000000000e-02 6.0000000000e-03 
7.3282450000e+07 4.0000000000e-02 8.0000000000e-03 9.7000000000e-01 -5.0000000000e-03 9.5000000000e-01 -8.0000000000e-03 3.5000000000e-02 6.0000000000e-03 
7.5857760000e+07 4.0000000000e-02 8.0000000000e-03 9.7000000000e-01 -5.0000000000e-03 9.5000000000e-01 -8.0000000000e-03 3.5000000000e-02 6.0000000000e-03 
7.8523560000e+07 4.0000000000e-02 8.0000000000e-03 9.7000000000e-01 -5.0000000000e-03 9.5000000000e-01 -8.0000000000e-03 3.5000000000e-02 6.0000000000e-03 
8.1283050000e+07 4.0000000000e-02 8.0000000000e-03 9.7000000000e-01 -5.0000000000e-03 9.5000000000e-01 -8.0000000000e-03 3.5000000000e-02 6.0000000000e-03 
8.4139510000e+07 4.0000000000e-02 8.0000000000e-03 9.7000000000e-01 -5.0000000000e-03 9.5000000000e-01 -8.0000000000e-03 3.5000000000e-02 6.0000000000e-03 
8.7096360000e+07 4.0000000000e-02 8.0000000000e-03 9.7000000000e-01 -5.0000000000e-03 9.5000000000e-01 -8.0000000000e-03 3.5000000000e-02 6.0000000000e-03 
9.0157110000e+07 4.0000000000e-02 8.0000000000e-03 9.7000000000e-01 -5.0000000000e-03 9.5000000000e-01 -8.0000000000e-03 3.5000000000e-02 6.0000000000e-03 
9.3325430000e+07 4.0000000000e-02 8.0000000000e-03 9.7000000000e-01 -5.0000000000e-03 9.5000000000e-01 -8.0000000000e-03 3.5000000000e-02 6.0000000000e-03 
9.6605090000e+07 4.0000000000e-02 8.0000000000e-03 9.7000000000e-01 -5.0000000000e-03 9.5000000000e-01 -8.0000000000e-03 3.5000000000e-02 6.0000000000e-03 
1.0000000000e+08 4.0000000000e-02 8.0000000000e-03 9.7000000000e-01 -5.0000000000e-03 9.5000000000e-01 -8.0000000000e-03 3.5000000000e-02 6.0000000000e-03 
