! Ideal Series 50 Ohm || 1 pF  S2P
# Hz S RI R 50
! Hz ReS11 ImS11 ReS21 ImS21 ReS12 ImS12 ReS22 ImS22
1000000.000000 0.333333 -0.000070 0.666667 0.000070 0.666667 0.000070 0.333333 -0.000070
1017551.274299 0.333333 -0.000071 0.666667 0.000071 0.666667 0.000071 0.333333 -0.000071
1035410.595828 0.333333 -0.000072 0.666667 0.000072 0.666667 0.000072 0.333333 -0.000072
1053583.371207 0.333333 -0.000074 0.666667 0.000074 0.666667 0.000074 0.333333 -0.000074
1072075.101952 0.333333 -0.000075 0.666667 0.000075 0.666667 0.000075 0.333333 -0.000075
1090891.386135 0.333333 -0.000076 0.666667 0.000076 0.666667 0.000076 0.333333 -0.000076
1110037.920084 0.333333 -0.000077 0.666667 0.000077 0.666667 0.000077 0.333333 -0.000077
1129520.500102 0.333333 -0.000079 0.666667 0.000079 0.666667 0.000079 0.333333 -0.000079
1149345.024225 0.333333 -0.000080 0.666667 0.000080 0.666667 0.000080 0.333333 -0.000080
1169517.494010 0.333333 -0.000082 0.666667 0.000082 0.666667 0.000082 0.333333 -0.000082
1190044.016345 0.333333 -0.000083 0.666667 0.000083 0.666667 0.000083 0.333333 -0.000083
1210930.805303 0.333333 -0.000085 0.666667 0.000085 0.666667 0.000085 0.333333 -0.000085
1232184.184024 0.333333 -0.000086 0.666667 0.000086 0.666667 0.000086 0.333333 -0.000086
1253810.586625 0.333333 -0.000088 0.666667 0.000088 0.666667 0.000088 0.333333 -0.000088
1275816.560150 0.333333 -0.000089 0.666667 0.000089 0.666667 0.000089 0.333333 -0.000089
1298208.766552 0.333333 -0.000091 0.666667 0.000091 0.666667 0.000091 0.333333 -0.000091
1320993.984711 0.333333 -0.000092 0.666667 0.000092 0.666667 0.000092 0.333333 -0.000092
1344179.112484 0.333333 -0.000094 0.666667 0.000094 0.666667 0.000094 0.333333 -0.000094
1367771.168795 0.333333 -0.000095 0.666667 0.000095 0.666667 0.000095 0.333333 -0.000095
1391777.295756 0.333333 -0.000097 0.666667 0.000097 0.666667 0.000097 0.333333 -0.000097
1416204.760837 0.333333 -0.000099 0.666667 0.000099 0.666667 0.000099 0.333333 -0.000099
1441060.959058 0.333333 -0.000101 0.666667 0.000101 0.666667 0.000101 0.333333 -0.000101
1466353.415233 0.333333 -0.000102 0.666667 0.000102 0.666667 0.000102 0.333333 -0.000102
1492089.786243 0.333333 -0.000104 0.666667 0.000104 0.666667 0.000104 0.333333 -0.000104
1518277.863360 0.333333 -0.000106 0.666667 0.000106 0.666667 0.000106 0.333333 -0.000106
1544925.574602 0.333333 -0.000108 0.666667 0.000108 0.666667 0.000108 0.333333 -0.000108
1572040.987133 0.333333 -0.000110 0.666667 0.000110 0.666667 0.000110 0.333333 -0.000110
1599632.309707 0.333333 -0.000112 0.666667 0.000112 0.666667 0.000112 0.333333 -0.000112
1627707.895153 0.333333 -0.000114 0.666667 0.000114 0.666667 0.000114 0.333333 -0.000114
1656276.242899 0.333333 -0.000116 0.666667 0.000116 0.666667 0.000116 0.333333 -0.000116
1685346.001553 0.333333 -0.000118 0.666667 0.000118 0.666667 0.000118 0.333333 -0.000118
1714925.971515 0.333333 -0.000120 0.666667 0.000120 0.666667 0.000120 0.333333 -0.000120
1745025.107644 0.333333 -0.000122 0.666667 0.000122 0.666667 0.000122 0.333333 -0.000122
1775652.521967 0.333333 -0.000124 0.666667 0.000124 0.666667 0.000124 0.333333 -0.000124
1806817.486440 0.333333 -0.000126 0.666667 0.000126 0.666667 0.000126 0.333333 -0.000126
1838529.435752 0.333333 -0.000128 0.666667 0.000128 0.666667 0.000128 0.333333 -0.000128
1870797.970186 0.333333 -0.000131 0.666667 0.000131 0.666667 0.000131 0.333333 -0.000131
1903632.858519 0.333333 -0.000133 0.666667 0.000133 0.666667 0.000133 0.333333 -0.000133
1937044.040983 0.333333 -0.000135 0.666667 0.000135 0.666667 0.000135 0.333333 -0.000135
1971041.632276 0.333333 -0.000138 0.666667 0.000138 0.666667 0.000138 0.333333 -0.000138
2005635.924619 0.333333 -0.000140 0.666667 0.000140 0.666667 0.000140 0.333333 -0.000140
2040837.390876 0.333333 -0.000142 0.666667 0.000142 0.666667 0.000142 0.333333 -0.000142
2076656.687723 0.333333 -0.000145 0.666667 0.000145 0.666667 0.000145 0.333333 -0.000145
2113104.658874 0.333333 -0.000148 0.666667 0.000148 0.666667 0.000148 0.333333 -0.000148
2150192.338364 0.333333 -0.000150 0.666667 0.000150 0.666667 0.000150 0.333333 -0.000150
2187930.953890 0.333333 -0.000153 0.666667 0.000153 0.666667 0.000153 0.333333 -0.000153
2226331.930209 0.333333 -0.000155 0.666667 0.000155 0.666667 0.000155 0.333333 -0.000155
2265406.892597 0.333333 -0.000158 0.666667 0.000158 0.666667 0.000158 0.333333 -0.000158
2305167.670368 0.333333 -0.000161 0.666667 0.000161 0.666667 0.000161 0.333333 -0.000161
2345626.300456 0.333333 -0.000164 0.666667 0.000164 0.666667 0.000164 0.333333 -0.000164
2386795.031058 0.333333 -0.000167 0.666667 0.000167 0.666667 0.000167 0.333333 -0.000167
2428686.325344 0.333333 -0.000170 0.666667 0.000170 0.666667 0.000170 0.333333 -0.000170
2471312.865226 0.333333 -0.000173 0.666667 0.000173 0.666667 0.000173 0.333333 -0.000173
2514687.555202 0.333333 -0.000176 0.666667 0.000176 0.666667 0.000176 0.333333 -0.000176
2558823.526260 0.333333 -0.000179 0.666667 0.000179 0.666667 0.000179 0.333333 -0.000179
2603734.139852 0.333333 -0.000182 0.666667 0.000182 0.666667 0.000182 0.333333 -0.000182
2649432.991942 0.333333 -0.000185 0.666667 0.000185 0.666667 0.000185 0.333333 -0.000185
2695933.917121 0.333333 -0.000188 0.666667 0.000188 0.666667 0.000188 0.333333 -0.000188
2743250.992792 0.333333 -0.000192 0.666667 0.000192 0.666667 0.000192 0.333333 -0.000192
2791398.543438 0.333333 -0.000195 0.666667 0.000195 0.666667 0.000195 0.333333 -0.000195
2840391.144952 0.333333 -0.000198 0.666667 0.000198 0.666667 0.000198 0.333333 -0.000198
2890243.629053 0.333333 -0.000202 0.666667 0.000202 0.666667 0.000202 0.333333 -0.000202
2940971.087778 0.333333 -0.000205 0.666667 0.000205 0.666667 0.000205 0.333333 -0.000205
2992588.878045 0.333333 -0.000209 0.666667 0.000209 0.666667 0.000209 0.333333 -0.000209
3045112.626307 0.333333 -0.000213 0.666667 0.000213 0.666667 0.000213 0.333333 -0.000213
3098558.233283 0.333333 -0.000216 0.666667 0.000216 0.666667 0.000216 0.333333 -0.000216
3152941.878767 0.333333 -0.000220 0.666667 0.000220 0.666667 0.000220 0.333333 -0.000220
3208280.026530 0.333333 -0.000224 0.666667 0.000224 0.666667 0.000224 0.333333 -0.000224
3264589.429304 0.333333 -0.000228 0.666667 0.000228 0.666667 0.000228 0.333333 -0.000228
3321887.133851 0.333333 -0.000232 0.666667 0.000232 0.666667 0.000232 0.333333 -0.000232
3380190.486128 0.333333 -0.000236 0.666667 0.000236 0.666667 0.000236 0.333333 -0.000236
3439517.136533 0.333333 -0.000240 0.666667 0.000240 0.666667 0.000240 0.333333 -0.000240
3499885.045252 0.333333 -0.000244 0.666667 0.000244 0.666667 0.000244 0.333333 -0.000244
3561312.487696 0.333333 -0.000249 0.666667 0.000249 0.666667 0.000249 0.333333 -0.000249
3623818.060032 0.333333 -0.000253 0.666667 0.000253 0.666667 0.000253 0.333333 -0.000253
3687420.684814 0.333333 -0.000257 0.666667 0.000257 0.666667 0.000257 0.333333 -0.000257
3752139.616709 0.333333 -0.000262 0.666667 0.000262 0.666667 0.000262 0.333333 -0.000262
3817994.448330 0.333333 -0.000267 0.666667 0.000267 0.666667 0.000267 0.333333 -0.000267
3885005.116164 0.333333 -0.000271 0.666667 0.000271 0.666667 0.000271 0.333333 -0.000271
3953191.906611 0.333333 -0.000276 0.666667 0.000276 0.666667 0.000276 0.333333 -0.000276
4022575.462121 0.333333 -0.000281 0.666667 0.000281 0.666667 0.000281 0.333333 -0.000281
4093176.787445 0.333333 -0.000286 0.666667 0.000286 0.666667 0.000286 0.333333 -0.000286
4165017.255996 0.333333 -0.000291 0.666667 0.000291 0.666667 0.000291 0.333333 -0.000291
4238118.616316 0.333333 -0.000296 0.666667 0.000296 0.666667 0.000296 0.333333 -0.000296
4312502.998663 0.333333 -0.000301 0.666667 0.000301 0.666667 0.000301 0.333333 -0.000301
4388192.921708 0.333333 -0.000306 0.666667 0.000306 0.666667 0.000306 0.333333 -0.000306
4465211.299353 0.333333 -0.000312 0.666667 0.000312 0.666667 0.000312 0.333333 -0.000312
4543581.447671 0.333333 -0.000317 0.666667 0.000317 0.666667 0.000317 0.333333 -0.000317
4623327.091959 0.333333 -0.000323 0.666667 0.000323 0.666667 0.000323 0.333333 -0.000323
4704472.373924 0.333333 -0.000328 0.666667 0.000328 0.666667 0.000328 0.333333 -0.000328
4787041.858991 0.333333 -0.000334 0.666667 0.000334 0.666667 0.000334 0.333333 -0.000334
4871060.543739 0.333333 -0.000340 0.666667 0.000340 0.666667 0.000340 0.333333 -0.000340
4956553.863470 0.333333 -0.000346 0.666667 0.000346 0.666667 0.000346 0.333333 -0.000346
5043547.699905 0.333333 -0.000352 0.666667 0.000352 0.666667 0.000352 0.333333 -0.000352
5132068.389026 0.333333 -0.000358 0.666667 0.000358 0.666667 0.000358 0.333333 -0.000358
5222142.729044 0.333333 -0.000365 0.666667 0.000365 0.666667 0.000365 0.333333 -0.000365
5313797.988510 0.333333 -0.000371 0.666667 0.000371 0.666667 0.000371 0.333333 -0.000371
5407061.914575 0.333333 -0.000377 0.666667 0.000377 0.666667 0.000377 0.333333 -0.000377
5501962.741390 0.333333 -0.000384 0.666667 0.000384 0.666667 0.000384 0.333333 -0.000384
5598529.198647 0.333333 -0.000391 0.666667 0.000391 0.666667 0.000391 0.333333 -0.000391
5696790.520284 0.333333 -0.000398 0.666667 0.000398 0.666667 0.000398 0.333333 -0.000398
5796776.453329 0.333333 -0.000405 0.666667 0.000405 0.666667 0.000405 0.333333 -0.000405
5898517.266911 0.333333 -0.000412 0.666667 0.000412 0.666667 0.000412 0.333333 -0.000412
6002043.761421 0.333333 -0.000419 0.666667 0.000419 0.666667 0.000419 0.333333 -0.000419
6107387.277832 0.333333 -0.000426 0.666667 0.000426 0.666667 0.000426 0.333333 -0.000426
6214579.707195 0.333333 -0.000434 0.666667 0.000434 0.666667 0.000434 0.333333 -0.000434
6323653.500289 0.333333 -0.000441 0.666667 0.000441 0.666667 0.000441 0.333333 -0.000441
6434641.677445 0.333333 -0.000449 0.666667 0.000449 0.666667 0.000449 0.333333 -0.000449
6547577.838542 0.333333 -0.000457 0.666667 0.000457 0.666667 0.000457 0.333333 -0.000457
6662496.173180 0.333333 -0.000465 0.666667 0.000465 0.666667 0.000465 0.333333 -0.000465
6779431.471032 0.333333 -0.000473 0.666667 0.000473 0.666667 0.000473 0.333333 -0.000473
6898419.132371 0.333333 -0.000482 0.666667 0.000482 0.666667 0.000482 0.333333 -0.000482
7019495.178793 0.333333 -0.000490 0.666667 0.000490 0.666667 0.000490 0.333333 -0.000490
7142696.264117 0.333333 -0.000499 0.666667 0.000499 0.666667 0.000499 0.333333 -0.000499
7268059.685483 0.333333 -0.000507 0.666667 0.000507 0.666667 0.000507 0.333333 -0.000507
7395623.394644 0.333333 -0.000516 0.666667 0.000516 0.666667 0.000516 0.333333 -0.000516
7525426.009456 0.333333 -0.000525 0.666667 0.000525 0.666667 0.000525 0.333333 -0.000525
7657506.825565 0.333332 -0.000535 0.666668 0.000535 0.666668 0.000535 0.333332 -0.000535
7791905.828307 0.333332 -0.000544 0.666668 0.000544 0.666668 0.000544 0.333332 -0.000544
7928663.704811 0.333332 -0.000554 0.666668 0.000554 0.666668 0.000554 0.333332 -0.000554
8067821.856319 0.333332 -0.000563 0.666668 0.000563 0.666668 0.000563 0.333332 -0.000563
8209422.410715 0.333332 -0.000573 0.666668 0.000573 0.666668 0.000573 0.333332 -0.000573
8353508.235282 0.333332 -0.000583 0.666668 0.000583 0.666668 0.000583 0.333332 -0.000583
8500122.949678 0.333332 -0.000593 0.666668 0.000593 0.666668 0.000593 0.333332 -0.000593
8649310.939144 0.333332 -0.000604 0.666668 0.000604 0.666668 0.000604 0.333332 -0.000604
8801117.367934 0.333332 -0.000614 0.666668 0.000614 0.666668 0.000614 0.333332 -0.000614
8955588.192996 0.333332 -0.000625 0.666668 0.000625 0.666668 0.000625 0.333332 -0.000625
9112770.177881 0.333332 -0.000636 0.666668 0.000636 0.666668 0.000636 0.333332 -0.000636
9272710.906897 0.333332 -0.000647 0.666668 0.000647 0.666668 0.000647 0.333332 -0.000647
9435458.799519 0.333332 -0.000659 0.666668 0.000659 0.666668 0.000659 0.333332 -0.000659
9601063.125046 0.333332 -0.000670 0.666668 0.000670 0.666668 0.000670 0.333332 -0.000670
9769574.017516 0.333332 -0.000682 0.666668 0.000682 0.666668 0.000682 0.333332 -0.000682
9941042.490882 0.333332 -0.000694 0.666668 0.000694 0.666668 0.000694 0.333332 -0.000694
10115520.454458 0.333332 -0.000706 0.666668 0.000706 0.666668 0.000706 0.333332 -0.000706
10293060.728631 0.333332 -0.000719 0.666668 0.000719 0.666668 0.000719 0.333332 -0.000719
10473717.060856 0.333332 -0.000731 0.666668 0.000731 0.666668 0.000731 0.333332 -0.000731
10657544.141921 0.333332 -0.000744 0.666668 0.000744 0.666668 0.000744 0.333332 -0.000744
10844597.622510 0.333332 -0.000757 0.666668 0.000757 0.666668 0.000757 0.333332 -0.000757
11034934.130045 0.333332 -0.000770 0.666668 0.000770 0.666668 0.000770 0.333332 -0.000770
11228611.285833 0.333331 -0.000784 0.666669 0.000784 0.666669 0.000784 0.333331 -0.000784
11425687.722508 0.333331 -0.000798 0.666669 0.000798 0.666669 0.000798 0.333331 -0.000798
11626223.101780 0.333331 -0.000812 0.666669 0.000812 0.666669 0.000812 0.333331 -0.000812
11830278.132501 0.333331 -0.000826 0.666669 0.000826 0.666669 0.000826 0.333331 -0.000826
12037914.589038 0.333331 -0.000840 0.666669 0.000840 0.666669 0.000840 0.333331 -0.000840
12249195.329979 0.333331 -0.000855 0.666669 0.000855 0.666669 0.000855 0.333331 -0.000855
12464184.317157 0.333331 -0.000870 0.666669 0.000870 0.666669 0.000870 0.333331 -0.000870
12682946.635021 0.333331 -0.000885 0.666669 0.000885 0.666669 0.000885 0.333331 -0.000885
12905548.510332 0.333331 -0.000901 0.666669 0.000901 0.666669 0.000901 0.333331 -0.000901
13132057.332216 0.333331 -0.000917 0.666669 0.000917 0.666669 0.000917 0.333331 -0.000917
13362541.672564 0.333331 -0.000933 0.666669 0.000933 0.666669 0.000933 0.333331 -0.000933
13597071.306791 0.333331 -0.000949 0.666669 0.000949 0.666669 0.000949 0.333331 -0.000949
13835717.234960 0.333331 -0.000966 0.666669 0.000966 0.666669 0.000966 0.333331 -0.000966
14078551.703275 0.333330 -0.000983 0.666670 0.000983 0.666670 0.000983 0.333330 -0.000983
14325648.225952 0.333330 -0.001000 0.666670 0.001000 0.666670 0.001000 0.333330 -0.001000
14577081.607476 0.333330 -0.001018 0.666670 0.001018 0.666670 0.001018 0.333330 -0.001018
14832927.965248 0.333330 -0.001036 0.666670 0.001036 0.666670 0.001036 0.333330 -0.001036
15093264.752624 0.333330 -0.001054 0.666670 0.001054 0.666670 0.001054 0.333330 -0.001054
15358170.782365 0.333330 -0.001072 0.666670 0.001072 0.666670 0.001072 0.333330 -0.001072
15627726.250497 0.333330 -0.001091 0.666670 0.001091 0.666670 0.001091 0.333330 -0.001091
15902012.760590 0.333330 -0.001110 0.666670 0.001110 0.666670 0.001110 0.333330 -0.001110
16181113.348457 0.333330 -0.001130 0.666670 0.001130 0.666670 0.001130 0.333330 -0.001130
16465112.507299 0.333329 -0.001149 0.666671 0.001149 0.666671 0.001149 0.333329 -0.001149
16754096.213279 0.333329 -0.001170 0.666671 0.001170 0.666671 0.001170 0.333329 -0.001170
17048151.951550 0.333329 -0.001190 0.666671 0.001190 0.666671 0.001190 0.333329 -0.001190
17347368.742743 0.333329 -0.001211 0.666671 0.001211 0.666671 0.001211 0.333329 -0.001211
17651837.169913 0.333329 -0.001232 0.666671 0.001232 0.666671 0.001232 0.333329 -0.001232
17961649.405964 0.333329 -0.001254 0.666671 0.001254 0.666671 0.001254 0.333329 -0.001254
18276899.241551 0.333328 -0.001276 0.666672 0.001276 0.666672 0.001276 0.333328 -0.001276
18597682.113475 0.333328 -0.001298 0.666672 0.001298 0.666672 0.001298 0.333328 -0.001298
18924095.133574 0.333328 -0.001321 0.666672 0.001321 0.666672 0.001321 0.333328 -0.001321
19256237.118124 0.333328 -0.001344 0.666672 0.001344 0.666672 0.001344 0.333328 -0.001344
19594208.617751 0.333328 -0.001368 0.666672 0.001368 0.666672 0.001368 0.333328 -0.001368
19938111.947874 0.333328 -0.001392 0.666672 0.001392 0.666672 0.001392 0.333328 -0.001392
20288051.219675 0.333327 -0.001416 0.666673 0.001416 0.666673 0.001416 0.333327 -0.001416
20644132.371624 0.333327 -0.001441 0.666673 0.001441 0.666673 0.001441 0.333327 -0.001441
21006463.201544 0.333327 -0.001466 0.666673 0.001466 0.666673 0.001466 0.333327 -0.001466
21375153.399246 0.333327 -0.001492 0.666673 0.001492 0.666673 0.001492 0.333327 -0.001492
21750314.579740 0.333326 -0.001518 0.666674 0.001518 0.666674 0.001518 0.333326 -0.001518
22132060.317019 0.333326 -0.001545 0.666674 0.001545 0.666674 0.001545 0.333326 -0.001545
22520506.178445 0.333326 -0.001572 0.666674 0.001572 0.666674 0.001572 0.333326 -0.001572
22915769.759735 0.333326 -0.001600 0.666674 0.001600 0.666674 0.001600 0.333326 -0.001600
23317970.720562 0.333325 -0.001628 0.666675 0.001628 0.666675 0.001628 0.333325 -0.001628
23727230.820775 0.333325 -0.001656 0.666675 0.001656 0.666675 0.001656 0.333325 -0.001656
24143673.957266 0.333325 -0.001686 0.666675 0.001686 0.666675 0.001686 0.333325 -0.001686
24567426.201476 0.333325 -0.001715 0.666675 0.001715 0.666675 0.001715 0.333325 -0.001715
24998615.837559 0.333324 -0.001745 0.666676 0.001745 0.666676 0.001745 0.333324 -0.001745
25437373.401219 0.333324 -0.001776 0.666676 0.001776 0.666676 0.001776 0.333324 -0.001776
25883831.719231 0.333324 -0.001807 0.666676 0.001807 0.666676 0.001807 0.333324 -0.001807
26338125.949644 0.333323 -0.001839 0.666677 0.001839 0.666677 0.001839 0.333323 -0.001839
26800393.622709 0.333323 -0.001871 0.666677 0.001871 0.666677 0.001871 0.333323 -0.001871
27270774.682502 0.333322 -0.001904 0.666678 0.001904 0.666678 0.001904 0.333322 -0.001904
27749411.529302 0.333322 -0.001937 0.666678 0.001937 0.666678 0.001937 0.333322 -0.001937
28236449.062688 0.333322 -0.001971 0.666678 0.001971 0.666678 0.001971 0.333322 -0.001971
28732034.725418 0.333321 -0.002006 0.666679 0.002006 0.666679 0.002006 0.333321 -0.002006
29236318.548053 0.333321 -0.002041 0.666679 0.002041 0.666679 0.002041 0.333321 -0.002041
29749453.194383 0.333320 -0.002077 0.666680 0.002077 0.666680 0.002077 0.333320 -0.002077
30271594.007643 0.333320 -0.002113 0.666680 0.002113 0.666680 0.002113 0.333320 -0.002113
30802899.057540 0.333319 -0.002150 0.666681 0.002150 0.666681 0.002150 0.333319 -0.002150
31343529.188103 0.333319 -0.002188 0.666681 0.002188 0.666681 0.002188 0.333319 -0.002188
31893648.066383 0.333318 -0.002226 0.666682 0.002226 0.666682 0.002226 0.333318 -0.002226
32453422.231992 0.333318 -0.002266 0.666682 0.002266 0.666682 0.002266 0.333318 -0.002266
33023021.147528 0.333317 -0.002305 0.666683 0.002305 0.666683 0.002305 0.333317 -0.002305
33602617.249870 0.333317 -0.002346 0.666683 0.002346 0.666683 0.002346 0.333317 -0.002346
34192386.002387 0.333316 -0.002387 0.666684 0.002387 0.666684 0.002387 0.333316 -0.002387
34792505.948053 0.333316 -0.002429 0.666684 0.002429 0.666684 0.002429 0.333316 -0.002429
35403158.763497 0.333315 -0.002471 0.666685 0.002471 0.666685 0.002471 0.333315 -0.002471
36024529.314007 0.333314 -0.002515 0.666686 0.002515 0.666686 0.002515 0.333314 -0.002515
36656805.709490 0.333314 -0.002559 0.666686 0.002559 0.666686 0.002559 0.333314 -0.002559
37300179.361423 0.333313 -0.002604 0.666687 0.002604 0.666687 0.002604 0.333313 -0.002604
37954845.040797 0.333312 -0.002650 0.666688 0.002650 0.666688 0.002650 0.333312 -0.002650
38621000.937085 0.333312 -0.002696 0.666688 0.002696 0.666688 0.002696 0.333312 -0.002696
39298848.718234 0.333311 -0.002743 0.666689 0.002743 0.666689 0.002743 0.333311 -0.002743
39988593.591724 0.333310 -0.002792 0.666690 0.002792 0.666690 0.002792 0.333310 -0.002792
40690444.366684 0.333309 -0.002841 0.666691 0.002841 0.666691 0.002841 0.333309 -0.002841
41404613.517112 0.333308 -0.002890 0.666692 0.002890 0.666692 0.002890 0.333308 -0.002890
42131317.246196 0.333307 -0.002941 0.666693 0.002941 0.666693 0.002941 0.333307 -0.002941
42870775.551762 0.333306 -0.002993 0.666694 0.002993 0.666694 0.002993 0.333306 -0.002993
43623212.292883 0.333306 -0.003045 0.666694 0.003045 0.666694 0.003045 0.333306 -0.003045
44388855.257639 0.333305 -0.003099 0.666695 0.003099 0.666695 0.003099 0.333305 -0.003099
45167936.232085 0.333304 -0.003153 0.666696 0.003153 0.666696 0.003153 0.333304 -0.003153
45960691.070415 0.333302 -0.003208 0.666698 0.003208 0.666698 0.003208 0.333302 -0.003208
46767359.766364 0.333301 -0.003265 0.666699 0.003265 0.666699 0.003265 0.333301 -0.003265
47588186.525864 0.333300 -0.003322 0.666700 0.003322 0.666700 0.003322 0.333300 -0.003322
48423419.840972 0.333299 -0.003380 0.666701 0.003380 0.666701 0.003380 0.333299 -0.003380
49273312.565098 0.333298 -0.003440 0.666702 0.003440 0.666702 0.003440 0.333298 -0.003440
50138121.989549 0.333297 -0.003500 0.666703 0.003500 0.666703 0.003500 0.333297 -0.003500
51018109.921425 0.333295 -0.003561 0.666705 0.003561 0.666705 0.003561 0.333295 -0.003561
51913542.762873 0.333294 -0.003624 0.666706 0.003624 0.666706 0.003624 0.333294 -0.003624
52824691.591738 0.333293 -0.003687 0.666707 0.003687 0.666707 0.003687 0.333293 -0.003687
53751832.243625 0.333291 -0.003752 0.666709 0.003752 0.666709 0.003752 0.333291 -0.003752
54695245.395407 0.333290 -0.003818 0.666710 0.003818 0.666710 0.003818 0.333290 -0.003818
55655216.650194 0.333288 -0.003885 0.666712 0.003885 0.666712 0.003885 0.333288 -0.003885
56632036.623793 0.333286 -0.003953 0.666714 0.003953 0.666714 0.003953 0.333286 -0.003953
57626001.032689 0.333285 -0.004022 0.666715 0.004022 0.666715 0.004022 0.333285 -0.004022
58637410.783569 0.333283 -0.004093 0.666717 0.004093 0.666717 0.004093 0.333283 -0.004093
59666572.064415 0.333281 -0.004165 0.666719 0.004165 0.666719 0.004165 0.333281 -0.004165
60713796.437199 0.333279 -0.004238 0.666721 0.004238 0.666721 0.004238 0.333279 -0.004238
61779400.932203 0.333278 -0.004312 0.666722 0.004312 0.666722 0.004312 0.333278 -0.004312
62863708.143993 0.333276 -0.004388 0.666724 0.004388 0.666724 0.004388 0.333276 -0.004388
63967046.329081 0.333274 -0.004465 0.666726 0.004465 0.666726 0.004465 0.333274 -0.004465
65089749.505301 0.333271 -0.004543 0.666729 0.004543 0.666729 0.004543 0.333271 -0.004543
66232157.552923 0.333269 -0.004623 0.666731 0.004623 0.666731 0.004623 0.333269 -0.004623
67394616.317549 0.333267 -0.004704 0.666733 0.004704 0.666733 0.004704 0.333267 -0.004704
68577477.714815 0.333265 -0.004787 0.666735 0.004787 0.666735 0.004787 0.333265 -0.004787
69781099.836923 0.333262 -0.004871 0.666738 0.004871 0.666738 0.004871 0.333262 -0.004871
71005847.061047 0.333260 -0.004956 0.666740 0.004956 0.666740 0.004956 0.333260 -0.004956
72252090.159650 0.333257 -0.005043 0.666743 0.005043 0.666743 0.005043 0.333257 -0.005043
73520206.412719 0.333254 -0.005131 0.666746 0.005131 0.666746 0.005131 0.333254 -0.005131
74810579.721989 0.333252 -0.005221 0.666748 0.005221 0.666748 0.005221 0.333252 -0.005221
76123600.727157 0.333249 -0.005313 0.666751 0.005313 0.666751 0.005313 0.333249 -0.005313
77459666.924148 0.333246 -0.005406 0.666754 0.005406 0.666754 0.005406 0.333246 -0.005406
78819182.785444 0.333243 -0.005501 0.666757 0.005501 0.666757 0.005501 0.333243 -0.005501
80202559.882536 0.333239 -0.005598 0.666761 0.005598 0.666761 0.005598 0.333239 -0.005598
81610217.010517 0.333236 -0.005696 0.666764 0.005696 0.666764 0.005696 0.333236 -0.005696
83042580.314871 0.333233 -0.005796 0.666767 0.005796 0.666767 0.005796 0.333233 -0.005796
84500083.420475 0.333229 -0.005897 0.666771 0.005897 0.666771 0.005897 0.333229 -0.005897
85983167.562878 0.333225 -0.006001 0.666775 0.006001 0.666775 0.006001 0.333225 -0.006001
87492281.721872 0.333221 -0.006106 0.666779 0.006106 0.666779 0.006106 0.333221 -0.006106
89027882.757419 0.333217 -0.006213 0.666783 0.006213 0.666783 0.006213 0.333217 -0.006213
90590435.547955 0.333213 -0.006322 0.666787 0.006322 0.666787 0.006322 0.333213 -0.006322
92180413.131124 0.333209 -0.006433 0.666791 0.006433 0.666791 0.006433 0.333209 -0.006433
93798296.846985 0.333205 -0.006546 0.666795 0.006546 0.666795 0.006546 0.333205 -0.006546
95444576.483726 0.333200 -0.006661 0.666800 0.006661 0.666800 0.006661 0.333200 -0.006661
97119750.425946 0.333195 -0.006777 0.666805 0.006777 0.666805 0.006777 0.333195 -0.006777
98824325.805523 0.333191 -0.006896 0.666809 0.006896 0.666809 0.006896 0.333191 -0.006896
100558818.655151 0.333186 -0.007017 0.666814 0.007017 0.666814 0.007017 0.333186 -0.007017
102323754.064552 0.333180 -0.007140 0.666820 0.007140 0.666820 0.007140 0.333180 -0.007140
104119666.339444 0.333175 -0.007265 0.666825 0.007265 0.666825 0.007265 0.333175 -0.007265
105947099.163289 0.333169 -0.007393 0.666831 0.007393 0.666831 0.007393 0.333169 -0.007393
107806605.761889 0.333163 -0.007522 0.666837 0.007522 0.666837 0.007522 0.333163 -0.007522
109698749.070862 0.333157 -0.007654 0.666843 0.007654 0.666843 0.007654 0.333157 -0.007654
111624101.906063 0.333151 -0.007789 0.666849 0.007789 0.666849 0.007789 0.333151 -0.007789
113583247.136997 0.333145 -0.007925 0.666855 0.007925 0.666855 0.007925 0.333145 -0.007925
115576777.863272 0.333138 -0.008064 0.666862 0.008064 0.666862 0.008064 0.333138 -0.008064
117605297.594146 0.333131 -0.008205 0.666869 0.008205 0.666869 0.008205 0.333131 -0.008205
119669420.431238 0.333124 -0.008349 0.666876 0.008349 0.666876 0.008349 0.333124 -0.008349
121769771.254431 0.333117 -0.008496 0.666883 0.008496 0.666883 0.008496 0.333117 -0.008496
123906985.911046 0.333109 -0.008645 0.666891 0.008645 0.666891 0.008645 0.333109 -0.008645
126081711.408334 0.333101 -0.008796 0.666899 0.008796 0.666899 0.008796 0.333101 -0.008796
128294606.109351 0.333093 -0.008950 0.666907 0.008950 0.666907 0.008950 0.333093 -0.008950
130546339.932261 0.333084 -0.009107 0.666916 0.009107 0.666916 0.009107 0.333084 -0.009107
132837594.553144 0.333076 -0.009267 0.666924 0.009267 0.666924 0.009267 0.333076 -0.009267
135169063.612367 0.333066 -0.009429 0.666934 0.009429 0.666934 0.009429 0.333066 -0.009429
137541452.924569 0.333057 -0.009594 0.666943 0.009594 0.666943 0.009594 0.333057 -0.009594
139955480.692333 0.333047 -0.009762 0.666953 0.009762 0.666953 0.009762 0.333047 -0.009762
142411877.723614 0.333037 -0.009933 0.666963 0.009933 0.666963 0.009933 0.333037 -0.009933
144911387.652979 0.333027 -0.010107 0.666973 0.010107 0.666973 0.010107 0.333027 -0.010107
147454767.166727 0.333016 -0.010284 0.666984 0.010284 0.666984 0.010284 0.333016 -0.010284
150042786.231968 0.333004 -0.010465 0.666996 0.010465 0.666996 0.010465 0.333004 -0.010465
152676228.329713 0.332993 -0.010648 0.667007 0.010648 0.667007 0.010648 0.332993 -0.010648
155355890.692067 0.332981 -0.010834 0.667019 0.010834 0.667019 0.010834 0.332981 -0.010834
158082584.543571 0.332968 -0.011024 0.667032 0.011024 0.667032 0.011024 0.332968 -0.011024
160857135.346792 0.332955 -0.011217 0.667045 0.011217 0.667045 0.011217 0.332955 -0.011217
163680383.052217 0.332942 -0.011414 0.667058 0.011414 0.667058 0.011414 0.332942 -0.011414
166553182.352535 0.332928 -0.011613 0.667072 0.011613 0.667072 0.011613 0.332928 -0.011613
169476402.941378 0.332914 -0.011817 0.667086 0.011817 0.667086 0.011817 0.332914 -0.011817
172450929.776612 0.332899 -0.012024 0.667101 0.012024 0.667101 0.012024 0.332899 -0.012024
175477663.348241 0.332884 -0.012234 0.667116 0.012234 0.667116 0.012234 0.332884 -0.012234
178557519.951016 0.332868 -0.012448 0.667132 0.012448 0.667132 0.012448 0.332868 -0.012448
181691431.961828 0.332851 -0.012666 0.667149 0.012666 0.667149 0.012666 0.332851 -0.012666
184880348.121970 0.332834 -0.012888 0.667166 0.012888 0.667166 0.012888 0.332834 -0.012888
188125233.824357 0.332817 -0.013113 0.667183 0.013113 0.667183 0.013113 0.332817 -0.013113
191427071.405774 0.332798 -0.013343 0.667202 0.013343 0.667202 0.013343 0.332798 -0.013343
194786860.444274 0.332779 -0.013576 0.667221 0.013576 0.667221 0.013576 0.332779 -0.013576
198205618.061775 0.332760 -0.013814 0.667240 0.013814 0.667240 0.013814 0.332760 -0.013814
201684379.231983 0.332740 -0.014055 0.667260 0.014055 0.667260 0.014055 0.332740 -0.014055
205224197.093709 0.332719 -0.014301 0.667281 0.014301 0.667281 0.014301 0.332719 -0.014301
208826143.269696 0.332697 -0.014551 0.667303 0.014551 0.667303 0.014551 0.332697 -0.014551
212491308.191028 0.332674 -0.014805 0.667326 0.014805 0.667326 0.014805 0.332674 -0.014805
216220801.427245 0.332651 -0.015064 0.667349 0.015064 0.667349 0.015064 0.332651 -0.015064
220015752.022247 0.332627 -0.015327 0.667373 0.015327 0.667373 0.015327 0.332627 -0.015327
223877308.836094 0.332602 -0.015595 0.667398 0.015595 0.667398 0.015595 0.332602 -0.015595
227806640.892801 0.332576 -0.015868 0.667424 0.015868 0.667424 0.015868 0.332576 -0.015868
231804937.734247 0.332550 -0.016145 0.667450 0.016145 0.667450 0.016145 0.332550 -0.016145
235873409.780286 0.332522 -0.016427 0.667478 0.016427 0.667478 0.016427 0.332522 -0.016427
240013288.695185 0.332493 -0.016714 0.667507 0.016714 0.667507 0.016714 0.332493 -0.016714
244225827.760482 0.332463 -0.017006 0.667537 0.017006 0.667537 0.017006 0.332463 -0.017006
248512302.254409 0.332433 -0.017303 0.667567 0.017303 0.667567 0.017303 0.332433 -0.017303
252874009.837957 0.332401 -0.017605 0.667599 0.017605 0.667599 0.017605 0.332401 -0.017605
257312270.947714 0.332368 -0.017912 0.667632 0.017912 0.667632 0.017912 0.332368 -0.017912
261828429.195619 0.332334 -0.018224 0.667666 0.018224 0.667666 0.018224 0.332334 -0.018224
266423851.775711 0.332299 -0.018542 0.667701 0.018542 0.667701 0.018542 0.332299 -0.018542
271099929.878027 0.332262 -0.018866 0.667738 0.018866 0.667738 0.018866 0.332262 -0.018866
275858079.109760 0.332224 -0.019194 0.667776 0.019194 0.667776 0.019194 0.332224 -0.019194
280699739.923814 0.332185 -0.019529 0.667815 0.019529 0.667815 0.019529 0.332185 -0.019529
285626378.054879 0.332145 -0.019869 0.667855 0.019869 0.667855 0.019869 0.332145 -0.019869
290639484.963154 0.332103 -0.020216 0.667897 0.020216 0.667897 0.020216 0.332103 -0.020216
295740578.285866 0.332059 -0.020568 0.667941 0.020568 0.667941 0.020568 0.332059 -0.020568
300931202.296710 0.332014 -0.020926 0.667986 0.020926 0.667986 0.020926 0.332014 -0.020926
306212928.373353 0.331968 -0.021290 0.668032 0.021290 0.668032 0.021290 0.331968 -0.021290
311587355.473137 0.331920 -0.021661 0.668080 0.021661 0.668080 0.021661 0.331920 -0.021661
317056110.617150 0.331870 -0.022038 0.668130 0.022038 0.668130 0.022038 0.331870 -0.022038
322620849.382771 0.331818 -0.022421 0.668182 0.022421 0.668182 0.022421 0.331818 -0.022421
328283256.404869 0.331765 -0.022811 0.668235 0.022811 0.668235 0.022811 0.331765 -0.022811
334045045.885804 0.331710 -0.023207 0.668290 0.023207 0.668290 0.023207 0.331710 -0.023207
339907962.114372 0.331653 -0.023610 0.668347 0.023610 0.668347 0.023610 0.331653 -0.023610
345873779.993861 0.331593 -0.024020 0.668407 0.024020 0.668407 0.024020 0.331593 -0.024020
351944305.579370 0.331532 -0.024438 0.668468 0.024438 0.668468 0.024438 0.331532 -0.024438
358121376.624569 0.331469 -0.024862 0.668531 0.024862 0.668531 0.024862 0.331469 -0.024862
364406863.138048 0.331403 -0.025293 0.668597 0.025293 0.668597 0.025293 0.331403 -0.025293
370802667.949427 0.331335 -0.025732 0.668665 0.025732 0.668665 0.025732 0.331335 -0.025732
377310727.285413 0.331265 -0.026178 0.668735 0.026178 0.668735 0.026178 0.331265 -0.026178
383933011.355959 0.331192 -0.026631 0.668808 0.026631 0.668808 0.026631 0.331192 -0.026631
390671524.950715 0.331117 -0.027093 0.668883 0.027093 0.668883 0.027093 0.331117 -0.027093
397528308.045939 0.331039 -0.027562 0.668961 0.027562 0.668961 0.027562 0.331039 -0.027562
404505436.422077 0.330958 -0.028039 0.669042 0.028039 0.669042 0.028039 0.330958 -0.028039
411605022.292163 0.330874 -0.028523 0.669126 0.028523 0.669126 0.028523 0.330874 -0.028523
418829214.941264 0.330788 -0.029017 0.669212 0.029017 0.669212 0.029017 0.330788 -0.029017
426180201.377138 0.330699 -0.029518 0.669301 0.029518 0.669301 0.029518 0.330699 -0.029518
433660206.992316 0.330606 -0.030027 0.669394 0.030027 0.669394 0.030027 0.330606 -0.030027
441271496.237807 0.330510 -0.030546 0.669490 0.030546 0.669490 0.030546 0.330510 -0.030546
449016373.308613 0.330411 -0.031072 0.669589 0.031072 0.669589 0.031072 0.330411 -0.031072
456897182.841302 0.330309 -0.031608 0.669691 0.031608 0.669691 0.031608 0.330309 -0.031608
464916310.623796 0.330203 -0.032152 0.669797 0.032152 0.669797 0.032152 0.330203 -0.032152
473076184.317639 0.330093 -0.032706 0.669907 0.032706 0.669907 0.032706 0.330093 -0.032706
481379274.192928 0.329979 -0.033268 0.670021 0.033268 0.670021 0.033268 0.329979 -0.033268
489828093.876148 0.329862 -0.033840 0.670138 0.033840 0.670138 0.033840 0.329862 -0.033840
498425201.111133 0.329740 -0.034422 0.670260 0.034422 0.670260 0.034422 0.329740 -0.034422
507173198.533375 0.329614 -0.035012 0.670386 0.035012 0.670386 0.035012 0.329614 -0.035012
516074734.457944 0.329484 -0.035613 0.670516 0.035613 0.670516 0.035613 0.329484 -0.035613
525132503.681205 0.329349 -0.036223 0.670651 0.036223 0.670651 0.036223 0.329349 -0.036223
534349248.296641 0.329210 -0.036843 0.670790 0.036843 0.670790 0.036843 0.329210 -0.036843
543727758.524967 0.329066 -0.037473 0.670934 0.037473 0.670934 0.037473 0.329066 -0.037473
553270873.558826 0.328917 -0.038114 0.671083 0.038114 0.671083 0.038114 0.328917 -0.038114
562981482.422314 0.328763 -0.038765 0.671237 0.038765 0.671237 0.038765 0.328763 -0.038765
572862524.845572 0.328603 -0.039426 0.671397 0.039426 0.671397 0.039426 0.328603 -0.039426
582916992.154765 0.328438 -0.040098 0.671562 0.040098 0.671562 0.040098 0.328438 -0.040098
593147928.177628 0.328267 -0.040780 0.671733 0.040780 0.671733 0.040780 0.328267 -0.040780
603558430.164965 0.328091 -0.041474 0.671909 0.041474 0.671909 0.041474 0.328091 -0.041474
614151649.728272 0.327908 -0.042178 0.672092 0.042178 0.672092 0.042178 0.327908 -0.042178
624930793.793844 0.327719 -0.042894 0.672281 0.042894 0.672281 0.042894 0.327719 -0.042894
635899125.573622 0.327524 -0.043620 0.672476 0.043620 0.672476 0.043620 0.327524 -0.043620
647059965.553067 0.327322 -0.044359 0.672678 0.044359 0.672678 0.044359 0.327322 -0.044359
658416692.496401 0.327113 -0.045108 0.672887 0.045108 0.672887 0.045108 0.327113 -0.045108
669972744.469454 0.326897 -0.045870 0.673103 0.045870 0.673103 0.045870 0.326897 -0.045870
681731619.880500 0.326674 -0.046643 0.673326 0.046643 0.673326 0.046643 0.326674 -0.046643
693696878.539333 0.326443 -0.047428 0.673557 0.047428 0.673557 0.047428 0.326443 -0.047428
705872142.734946 0.326204 -0.048225 0.673796 0.048225 0.673796 0.048225 0.326204 -0.048225
718261098.332121 0.325957 -0.049034 0.674043 0.049034 0.674043 0.049034 0.325957 -0.049034
730867495.887259 0.325702 -0.049856 0.674298 0.049856 0.674298 0.049856 0.325702 -0.049856
743695151.783811 0.325438 -0.050690 0.674562 0.050690 0.674562 0.050690 0.325438 -0.050690
756747949.387615 0.325165 -0.051536 0.674835 0.051536 0.674835 0.051536 0.325165 -0.051536
770029840.222532 0.324883 -0.052395 0.675117 0.052395 0.675117 0.052395 0.324883 -0.052395
783544845.166703 0.324592 -0.053267 0.675408 0.053267 0.675408 0.053267 0.324592 -0.053267
797297055.669801 0.324291 -0.054152 0.675709 0.054152 0.675709 0.054152 0.324291 -0.054152
811290634.991660 0.323980 -0.055049 0.676020 0.055049 0.676020 0.055049 0.323980 -0.055049
825529819.462619 0.323658 -0.055960 0.676342 0.055960 0.676342 0.055960 0.323658 -0.055960
840018919.766026 0.323326 -0.056884 0.676674 0.056884 0.676674 0.056884 0.323326 -0.056884
854762322.243199 0.322982 -0.057821 0.677018 0.057821 0.677018 0.057821 0.322982 -0.057821
869764490.221351 0.322627 -0.058771 0.677373 0.058771 0.677373 0.058771 0.322627 -0.058771
885029965.364767 0.322261 -0.059734 0.677739 0.059734 0.677739 0.059734 0.322261 -0.059734
900563369.049733 0.321882 -0.060711 0.678118 0.060711 0.678118 0.060711 0.321882 -0.060711
916369403.763568 0.321491 -0.061702 0.678509 0.061702 0.678509 0.061702 0.321491 -0.061702
932452854.528245 0.321087 -0.062706 0.678913 0.062706 0.678913 0.062706 0.321087 -0.062706
948818590.348972 0.320670 -0.063724 0.679330 0.063724 0.679330 0.063724 0.320670 -0.063724
965471565.688189 0.320239 -0.064755 0.679761 0.064755 0.679761 0.064755 0.320239 -0.064755
982416821.965480 0.319795 -0.065800 0.680205 0.065800 0.680205 0.065800 0.319795 -0.065800
999659489.083760 0.319335 -0.066859 0.680665 0.066859 0.680665 0.066859 0.319335 -0.066859
1017204786.982285 0.318861 -0.067931 0.681139 0.067931 0.681139 0.067931 0.318861 -0.067931
1035058027.216879 0.318372 -0.069017 0.681628 0.069017 0.681628 0.069017 0.318372 -0.069017
1053224614.567958 0.317866 -0.070117 0.682134 0.070117 0.682134 0.070117 0.317866 -0.070117
1071710048.676716 0.317345 -0.071231 0.682655 0.071231 0.682655 0.071231 0.317345 -0.071231
1090519925.710050 0.316807 -0.072358 0.683193 0.072358 0.683193 0.072358 0.316807 -0.072358
1109659940.054726 0.316252 -0.073499 0.683748 0.073499 0.683748 0.073499 0.316252 -0.073499
1129135886.041252 0.315679 -0.074654 0.684321 0.074654 0.684321 0.074654 0.315679 -0.074654
1148953659.698026 0.315088 -0.075822 0.684912 0.075822 0.684912 0.075822 0.315088 -0.075822
1169119260.536240 0.314478 -0.077003 0.685522 0.077003 0.685522 0.077003 0.314478 -0.077003
1189638793.366171 0.313850 -0.078198 0.686150 0.078198 0.686150 0.078198 0.313850 -0.078198
1210518470.145292 0.313201 -0.079406 0.686799 0.079406 0.686799 0.079406 0.313201 -0.079406
1231764611.858833 0.312533 -0.080627 0.687467 0.080627 0.687467 0.080627 0.312533 -0.080627
1253383650.433384 0.311844 -0.081862 0.688156 0.081862 0.688156 0.081862 0.311844 -0.081862
1275382130.684039 0.311134 -0.083109 0.688866 0.083109 0.688866 0.083109 0.311134 -0.083109
1297766712.295739 0.310402 -0.084368 0.689598 0.084368 0.689598 0.084368 0.310402 -0.084368
1320544171.839369 0.309647 -0.085640 0.690353 0.085640 0.690353 0.085640 0.309647 -0.085640
1343721404.823284 0.308870 -0.086925 0.691130 0.086925 0.691130 0.086925 0.308870 -0.086925
1367305427.780798 0.308070 -0.088221 0.691930 0.088221 0.691930 0.088221 0.308070 -0.088221
1391303380.394308 0.307245 -0.089529 0.692755 0.089529 0.692755 0.089529 0.307245 -0.089529
1415722527.656752 0.306396 -0.090849 0.693604 0.090849 0.693604 0.090849 0.306396 -0.090849
1440570262.070947 0.305522 -0.092180 0.694478 0.092180 0.694478 0.092180 0.305522 -0.092180
1465854105.887561 0.304622 -0.093521 0.695378 0.093521 0.695378 0.093521 0.304622 -0.093521
1491581713.382328 0.303695 -0.094873 0.696305 0.094873 0.696305 0.094873 0.303695 -0.094873
1517760873.173292 0.302742 -0.096235 0.697258 0.096235 0.697258 0.096235 0.302742 -0.096235
1544399510.578672 0.301761 -0.097607 0.698239 0.097607 0.698239 0.097607 0.301761 -0.097607
1571505690.016099 0.300753 -0.098988 0.699247 0.098988 0.699247 0.098988 0.300753 -0.098988
1599087617.444031 0.299715 -0.100378 0.700285 0.100378 0.700285 0.100378 0.299715 -0.100378
1627153642.845946 0.298649 -0.101777 0.701351 0.101777 0.701351 0.101777 0.298649 -0.101777
1655712262.758180 0.297552 -0.103183 0.702448 0.103183 0.702448 0.103183 0.297552 -0.103183
1684772122.842088 0.296426 -0.104596 0.703574 0.104596 0.703574 0.104596 0.296426 -0.104596
1714342020.501419 0.295268 -0.106016 0.704732 0.106016 0.704732 0.106016 0.295268 -0.106016
1744430907.545570 0.294079 -0.107443 0.705921 0.107443 0.705921 0.107443 0.294079 -0.107443
1775047892.899578 0.292858 -0.108874 0.707142 0.108874 0.707142 0.108874 0.292858 -0.108874
1806202245.361743 0.291604 -0.110311 0.708396 0.110311 0.708396 0.110311 0.291604 -0.110311
1837903396.409580 0.290317 -0.111752 0.709683 0.111752 0.709683 0.111752 0.290317 -0.111752
1870160943.055059 0.288996 -0.113196 0.711004 0.113196 0.711004 0.113196 0.288996 -0.113196
1902984650.749919 0.287641 -0.114642 0.712359 0.114642 0.712359 0.114642 0.287641 -0.114642
1936384456.342042 0.286252 -0.116091 0.713748 0.116091 0.713748 0.116091 0.286252 -0.116091
1970370471.083653 0.284827 -0.117541 0.715173 0.117541 0.715173 0.117541 0.284827 -0.117541
2004952983.692318 0.283367 -0.118991 0.716633 0.118991 0.716633 0.118991 0.283367 -0.118991
2040142463.465725 0.281871 -0.120440 0.718129 0.120440 0.718129 0.120440 0.281871 -0.120440
2075949563.451076 0.280338 -0.121887 0.719662 0.121887 0.719662 0.121887 0.280338 -0.121887
2112385123.670130 0.278769 -0.123332 0.721231 0.123332 0.721231 0.123332 0.278769 -0.123332
2149460174.400818 0.277163 -0.124774 0.722837 0.124774 0.722837 0.124774 0.277163 -0.124774
2187185939.516531 0.275518 -0.126210 0.724482 0.126210 0.724482 0.126210 0.275518 -0.126210
2225573839.883938 0.273837 -0.127642 0.726163 0.127642 0.726163 0.127642 0.273837 -0.127642
2264635496.820448 0.272117 -0.129066 0.727883 0.129066 0.727883 0.129066 0.272117 -0.129066
2304382735.612425 0.270359 -0.130483 0.729641 0.130483 0.729641 0.130483 0.270359 -0.130483
2344827589.095068 0.268562 -0.131891 0.731438 0.131891 0.731438 0.131891 0.268562 -0.131891
2385982301.295178 0.266727 -0.133288 0.733273 0.133288 0.733273 0.133288 0.266727 -0.133288
2427859331.137799 0.264853 -0.134675 0.735147 0.134675 0.735147 0.134675 0.264853 -0.134675
2470471356.218016 0.262940 -0.136049 0.737060 0.136049 0.737060 0.136049 0.262940 -0.136049
2513831276.638863 0.260988 -0.137409 0.739012 0.137409 0.739012 0.137409 0.260988 -0.137409
2557952218.916589 0.258998 -0.138754 0.741002 0.138754 0.741002 0.138754 0.258998 -0.138754
2602847539.954562 0.256968 -0.140083 0.743032 0.140083 0.743032 0.140083 0.256968 -0.140083
2648530831.086815 0.254900 -0.141395 0.745100 0.141395 0.745100 0.141395 0.254900 -0.141395
2695015922.192623 0.252794 -0.142688 0.747206 0.142688 0.747206 0.142688 0.252794 -0.142688
2742316885.883233 0.250650 -0.143961 0.749350 0.143961 0.749350 0.143961 0.250650 -0.143961
2790448041.762184 0.248467 -0.145212 0.751533 0.145212 0.751533 0.145212 0.248467 -0.145212
2839423960.760306 0.246247 -0.146440 0.753753 0.146440 0.753753 0.146440 0.246247 -0.146440
2889259469.546799 0.243990 -0.147644 0.756010 0.147644 0.756010 0.147644 0.243990 -0.147644
2939969655.017835 0.241696 -0.148823 0.758304 0.148823 0.758304 0.148823 0.241696 -0.148823
2991569868.863827 0.239366 -0.149975 0.760634 0.149975 0.760634 0.149975 0.239366 -0.149975
3044075732.216930 0.237000 -0.151099 0.763000 0.151099 0.763000 0.151099 0.237000 -0.151099
3097503140.380037 0.234599 -0.152194 0.765401 0.152194 0.765401 0.152194 0.234599 -0.152194
3151868267.638914 0.232164 -0.153258 0.767836 0.153258 0.767836 0.153258 0.232164 -0.153258
3207187572.158598 0.229695 -0.154289 0.770305 0.154289 0.770305 0.154289 0.229695 -0.154289
3263477800.965938 0.227194 -0.155287 0.772806 0.155287 0.772806 0.155287 0.227194 -0.155287
3320755995.019430 0.224661 -0.156251 0.775339 0.156251 0.775339 0.156251 0.224661 -0.156251
3379039494.368107 0.222097 -0.157179 0.777903 0.157179 0.777903 0.157179 0.222097 -0.157179
3438345943.400973 0.219503 -0.158070 0.780497 0.158070 0.780497 0.158070 0.219503 -0.158070
3498693296.188501 0.216881 -0.158922 0.783119 0.158922 0.783119 0.158922 0.216881 -0.158922
3560099821.918037 0.214230 -0.159736 0.785770 0.159736 0.785770 0.159736 0.214230 -0.159736
3622584110.424387 0.211554 -0.160508 0.788446 0.160508 0.788446 0.160508 0.211554 -0.160508
3686165077.817690 0.208852 -0.161240 0.791148 0.161240 0.791148 0.161240 0.208852 -0.161240
3750861972.209910 0.206126 -0.161928 0.793874 0.161928 0.793874 0.161928 0.206126 -0.161928
3816694379.541902 0.203378 -0.162573 0.796622 0.162573 0.796622 0.162573 0.203378 -0.162573
3883682229.512758 0.200608 -0.163174 0.799392 0.163174 0.799392 0.163174 0.200608 -0.163174
3951845801.613138 0.197819 -0.163729 0.802181 0.163729 0.802181 0.163729 0.197819 -0.163729
4021205731.264668 0.195012 -0.164239 0.804988 0.164239 0.804988 0.164239 0.195012 -0.164239
4091783016.066856 0.192188 -0.164701 0.807812 0.164701 0.807812 0.164701 0.192188 -0.164701
4163599022.153887 0.189348 -0.165116 0.810652 0.165116 0.810652 0.165116 0.189348 -0.165116
4236675490.662811 0.186496 -0.165483 0.813504 0.165483 0.813504 0.165483 0.186496 -0.165483
4311034544.315338 0.183631 -0.165801 0.816369 0.165801 0.816369 0.165801 0.183631 -0.165801
4386698694.115154 0.180757 -0.166070 0.819243 0.166070 0.819243 0.166070 0.180757 -0.166070
4463690846.162690 0.177874 -0.166289 0.822126 0.166289 0.822126 0.166289 0.177874 -0.166289
4542034308.589702 0.174984 -0.166459 0.825016 0.166459 0.825016 0.166459 0.174984 -0.166459
4621752798.615287 0.172089 -0.166578 0.827911 0.166578 0.827911 0.166578 0.172089 -0.166578
4702870449.726013 0.169191 -0.166648 0.830809 0.166648 0.830809 0.166648 0.169191 -0.166648
4785411818.981875 0.166291 -0.166666 0.833709 0.166666 0.833709 0.166666 0.166291 -0.166666
4869401894.450563 0.163392 -0.166634 0.836608 0.166634 0.836608 0.166634 0.163392 -0.166634
4954866102.772218 0.160495 -0.166552 0.839505 0.166552 0.839505 0.166552 0.160495 -0.166552
5041830316.856853 0.157601 -0.166420 0.842399 0.166420 0.842399 0.166420 0.157601 -0.166420
5130320863.717107 0.154713 -0.166237 0.845287 0.166237 0.845287 0.166237 0.154713 -0.166237
5220364532.438154 0.151832 -0.166005 0.848168 0.166005 0.848168 0.166005 0.151832 -0.166005
5311988582.287813 0.148959 -0.165723 0.851041 0.165723 0.851041 0.165723 0.148959 -0.165723
5405220750.968770 0.146098 -0.165393 0.853902 0.165393 0.853902 0.165393 0.146098 -0.165393
5500089263.015738 0.143249 -0.165013 0.856751 0.165013 0.856751 0.165013 0.143249 -0.165013
5596622838.340006 0.140413 -0.164586 0.859587 0.164586 0.859587 0.164586 0.140413 -0.164586
5694850700.923830 0.137593 -0.164111 0.862407 0.164111 0.862407 0.164111 0.137593 -0.164111
5794802587.667693 0.134791 -0.163590 0.865209 0.163590 0.865209 0.163590 0.134791 -0.163590
5896508757.392477 0.132006 -0.163023 0.867994 0.163023 0.867994 0.163023 0.132006 -0.163023
6000000000.000003 0.129242 -0.162411 0.870758 0.162411 0.870758 0.162411 0.129242 -0.162411
