! Ideal Series 50 Ohm Resistor S2P
# HZ RI RI R 50
1.0000000000e+06 3.3333300000e-01 0.0000000000e+00 6.6666700000e-01 0.0000000000e+00 6.6666700000e-01 0.0000000000e+00 3.3333300000e-01 0.0000000000e+00 
1.0175512743e+06 3.3333300000e-01 0.0000000000e+00 6.6666700000e-01 0.0000000000e+00 6.6666700000e-01 0.0000000000e+00 3.3333300000e-01 0.0000000000e+00 
1.0354105958e+06 3.3333300000e-01 0.0000000000e+00 6.6666700000e-01 0.0000000000e+00 6.6666700000e-01 0.0000000000e+00 3.3333300000e-01 0.0000000000e+00 
1.0535833712e+06 3.3333300000e-01 0.0000000000e+00 6.6666700000e-01 0.0000000000e+00 6.6666700000e-01 0.0000000000e+00 3.3333300000e-01 0.0000000000e+00 
1.0720751020e+06 3.3333300000e-01 0.0000000000e+00 6.6666700000e-01 0.0000000000e+00 6.6666700000e-01 0.0000000000e+00 3.3333300000e-01 0.0000000000e+00 
1.0908913861e+06 3.3333300000e-01 0.0000000000e+00 6.6666700000e-01 0.0000000000e+00 6.6666700000e-01 0.0000000000e+00 3.3333300000e-01 0.0000000000e+00 
1.1100379201e+06 3.3333300000e-01 0.0000000000e+00 6.6666700000e-01 0.0000000000e+00 6.6666700000e-01 0.0000000000e+00 3.3333300000e-01 0.0000000000e+00 
1.1295205001e+06 3.3333300000e-01 0.0000000000e+00 6.6666700000e-01 0.0000000000e+00 6.6666700000e-01 0.0000000000e+00 3.3333300000e-01 0.0000000000e+00 
1.1493450242e+06 3.3333300000e-01 0.0000000000e+00 6.6666700000e-01 0.0000000000e+00 6.6666700000e-01 0.0000000000e+00 3.3333300000e-01 0.0000000000e+00 
1.1695174940e+06 3.3333300000e-01 0.0000000000e+00 6.6666700000e-01 0.0000000000e+00 6.6666700000e-01 0.0000000000e+00 3.3333300000e-01 0.0000000000e+00 
1.1900440163e+06 3.3333300000e-01 0.0000000000e+00 6.6666700000e-01 0.0000000000e+00 6.6666700000e-01 0.0000000000e+00 3.3333300000e-01 0.0000000000e+00 
1.2109308053e+06 3.3333300000e-01 0.0000000000e+00 6.6666700000e-01 0.0000000000e+00 6.6666700000e-01 0.0000000000e+00 3.3333300000e-01 0.0000000000e+00 
1.2321841840e+06 3.3333300000e-01 0.0000000000e+00 6.6666700000e-01 0.0000000000e+00 6.6666700000e-01 0.0000000000e+00 3.3333300000e-01 0.0000000000e+00 
1.2538105866e+06 3.3333300000e-01 0.0000000000e+00 6.6666700000e-01 0.0000000000e+00 6.6666700000e-01 0.0000000000e+00 3.3333300000e-01 0.0000000000e+00 
1.2758165602e+06 3.3333300000e-01 0.0000000000e+00 6.6666700000e-01 0.0000000000e+00 6.6666700000e-01 0.0000000000e+00 3.3333300000e-01 0.0000000000e+00 
1.2982087666e+06 3.3333300000e-01 0.0000000000e+00 6.6666700000e-01 0.0000000000e+00 6.6666700000e-01 0.0000000000e+00 3.3333300000e-01 0.0000000000e+00 
1.3209939847e+06 3.3333300000e-01 0.0000000000e+00 6.6666700000e-01 0.0000000000e+00 6.6666700000e-01 0.0000000000e+00 3.3333300000e-01 0.0000000000e+00 
1.3441791125e+06 3.3333300000e-01 0.0000000000e+00 6.6666700000e-01 0.0000000000e+00 6.6666700000e-01 0.0000000000e+00 3.3333300000e-01 0.0000000000e+00 
1.3677711688e+06 3.3333300000e-01 0.0000000000e+00 6.6666700000e-01 0.0000000000e+00 6.6666700000e-01 0.0000000000e+00 3.3333300000e-01 0.0000000000e+00 
1.3917772958e+06 3.3333300000e-01 0.0000000000e+00 6.6666700000e-01 0.0000000000e+00 6.6666700000e-01 0.0000000000e+00 3.3333300000e-01 0.0000000000e+00 
1.4162047608e+06 3.3333300000e-01 0.0000000000e+00 6.6666700000e-01 0.0000000000e+00 6.6666700000e-01 0.0000000000e+00 3.3333300000e-01 0.0000000000e+00 
1.4410609591e+06 3.3333300000e-01 0.0000000000e+00 6.6666700000e-01 0.0000000000e+00 6.6666700000e-01 0.0000000000e+00 3.3333300000e-01 0.0000000000e+00 
1.4663534152e+06 3.3333300000e-01 0.0000000000e+00 6.6666700000e-01 0.0000000000e+00 6.6666700000e-01 0.0000000000e+00 3.3333300000e-01 0.0000000000e+00 
1.4920897862e+06 3.3333300000e-01 0.0000000000e+00 6.6666700000e-01 0.0000000000e+00 6.6666700000e-01 0.0000000000e+00 3.3333300000e-01 0.0000000000e+00 
1.5182778634e+06 3.3333300000e-01 0.0000000000e+00 6.6666700000e-01 0.0000000000e+00 6.6666700000e-01 0.0000000000e+00 3.3333300000e-01 0.0000000000e+00 
1.5449255746e+06 3.3333300000e-01 0.0000000000e+00 6.6666700000e-01 0.0000000000e+00 6.6666700000e-01 0.0000000000e+00 3.3333300000e-01 0.0000000000e+00 
1.5720409871e+06 3.3333300000e-01 0.0000000000e+00 6.6666700000e-01 0.0000000000e+00 6.6666700000e-01 0.0000000000e+00 3.3333300000e-01 0.0000000000e+00 
1.5996323097e+06 3.3333300000e-01 0.0000000000e+00 6.6666700000e-01 0.0000000000e+00 6.6666700000e-01 0.0000000000e+00 3.3333300000e-01 0.0000000000e+00 
1.6277078952e+06 3.3333300000e-01 0.0000000000e+00 6.6666700000e-01 0.0000000000e+00 6.6666700000e-01 0.0000000000e+00 3.3333300000e-01 0.0000000000e+00 
1.6562762429e+06 3.3333300000e-01 0.0000000000e+00 6.6666700000e-01 0.0000000000e+00 6.6666700000e-01 0.0000000000e+00 3.3333300000e-01 0.0000000000e+00 
1.6853460016e+06 3.3333300000e-01 0.0000000000e+00 6.6666700000e-01 0.0000000000e+00 6.6666700000e-01 0.0000000000e+00 3.3333300000e-01 0.0000000000e+00 
1.7149259715e+06 3.3333300000e-01 0.0000000000e+00 6.6666700000e-01 0.0000000000e+00 6.6666700000e-01 0.0000000000e+00 3.3333300000e-01 0.0000000000e+00 
1.7450251076e+06 3.3333300000e-01 0.0000000000e+00 6.6666700000e-01 0.0000000000e+00 6.6666700000e-01 0.0000000000e+00 3.3333300000e-01 0.0000000000e+00 
1.7756525220e+06 3.3333300000e-01 0.0000000000e+00 6.6666700000e-01 0.0000000000e+00 6.6666700000e-01 0.0000000000e+00 3.3333300000e-01 0.0000000000e+00 
1.8068174864e+06 3.3333300000e-01 0.0000000000e+00 6.6666700000e-01 0.0000000000e+00 6.6666700000e-01 0.0000000000e+00 3.3333300000e-01 0.0000000000e+00 
1.8385294358e+06 3.3333300000e-01 0.0000000000e+00 6.6666700000e-01 0.0000000000e+00 6.6666700000e-01 0.0000000000e+00 3.3333300000e-01 0.0000000000e+00 
1.8707979702e+06 3.3333300000e-01 0.0000000000e+00 6.6666700000e-01 0.0000000000e+00 6.6666700000e-01 0.0000000000e+00 3.3333300000e-01 0.0000000000e+00 
1.9036328585e+06 3.3333300000e-01 0.0000000000e+00 6.6666700000e-01 0.0000000000e+00 6.6666700000e-01 0.0000000000e+00 3.3333300000e-01 0.0000000000e+00 
1.9370440410e+06 3.3333300000e-01 0.0000000000e+00 6.6666700000e-01 0.0000000000e+00 6.6666700000e-01 0.0000000000e+00 3.3333300000e-01 0.0000000000e+00 
1.9710416323e+06 3.3333300000e-01 0.0000000000e+00 6.6666700000e-01 0.0000000000e+00 6.6666700000e-01 0.0000000000e+00 3.3333300000e-01 0.0000000000e+00 
2.0056359246e+06 3.3333300000e-01 0.0000000000e+00 6.6666700000e-01 0.0000000000e+00 6.6666700000e-01 0.0000000000e+00 3.3333300000e-01 0.0000000000e+00 
2.0408373909e+06 3.3333300000e-01 0.0000000000e+00 6.6666700000e-01 0.0000000000e+00 6.6666700000e-01 0.0000000000e+00 3.3333300000e-01 0.0000000000e+00 
2.0766566877e+06 3.3333300000e-01 0.0000000000e+00 6.6666700000e-01 0.0000000000e+00 6.6666700000e-01 0.0000000000e+00 3.3333300000e-01 0.0000000000e+00 
2.1131046589e+06 3.3333300000e-01 0.0000000000e+00 6.6666700000e-01 0.0000000000e+00 6.6666700000e-01 0.0000000000e+00 3.3333300000e-01 0.0000000000e+00 
2.1501923384e+06 3.3333300000e-01 0.0000000000e+00 6.6666700000e-01 0.0000000000e+00 6.6666700000e-01 0.0000000000e+00 3.3333300000e-01 0.0000000000e+00 
2.1879309539e+06 3.3333300000e-01 0.0000000000e+00 6.6666700000e-01 0.0000000000e+00 6.6666700000e-01 0.0000000000e+00 3.3333300000e-01 0.0000000000e+00 
2.2263319302e+06 3.3333300000e-01 0.0000000000e+00 6.6666700000e-01 0.0000000000e+00 6.6666700000e-01 0.0000000000e+00 3.3333300000e-01 0.0000000000e+00 
2.2654068926e+06 3.3333300000e-01 0.0000000000e+00 6.6666700000e-01 0.0000000000e+00 6.6666700000e-01 0.0000000000e+00 3.3333300000e-01 0.0000000000e+00 
2.3051676704e+06 3.3333300000e-01 0.0000000000e+00 6.6666700000e-01 0.0000000000e+00 6.6666700000e-01 0.0000000000e+00 3.3333300000e-01 0.0000000000e+00 
2.3456263005e+06 3.3333300000e-01 0.0000000000e+00 6.6666700000e-01 0.0000000000e+00 6.6666700000e-01 0.0000000000e+00 3.3333300000e-01 0.0000000000e+00 
2.3867950311e+06 3.3333300000e-01 0.0000000000e+00 6.6666700000e-01 0.0000000000e+00 6.6666700000e-01 0.0000000000e+00 3.3333300000e-01 0.0000000000e+00 
2.4286863253e+06 3.3333300000e-01 0.0000000000e+00 6.6666700000e-01 0.0000000000e+00 6.6666700000e-01 0.0000000000e+00 3.3333300000e-01 0.0000000000e+00 
2.4713128652e+06 3.3333300000e-01 0.0000000000e+00 6.6666700000e-01 0.0000000000e+00 6.6666700000e-01 0.0000000000e+00 3.3333300000e-01 0.0000000000e+00 
2.5146875552e+06 3.3333300000e-01 0.0000000000e+00 6.6666700000e-01 0.0000000000e+00 6.6666700000e-01 0.0000000000e+00 3.3333300000e-01 0.0000000000e+00 
2.5588235263e+06 3.3333300000e-01 0.0000000000e+00 6.6666700000e-01 0.0000000000e+00 6.6666700000e-01 0.0000000000e+00 3.3333300000e-01 0.0000000000e+00 
2.6037341399e+06 3.3333300000e-01 0.0000000000e+00 6.6666700000e-01 0.0000000000e+00 6.6666700000e-01 0.0000000000e+00 3.3333300000e-01 0.0000000000e+00 
2.6494329919e+06 3.3333300000e-01 0.0000000000e+00 6.6666700000e-01 0.0000000000e+00 6.6666700000e-01 0.0000000000e+00 3.3333300000e-01 0.0000000000e+00 
2.6959339171e+06 3.3333300000e-01 0.0000000000e+00 6.6666700000e-01 0.0000000000e+00 6.6666700000e-01 0.0000000000e+00 3.3333300000e-01 0.0000000000e+00 
2.7432509928e+06 3.3333300000e-01 0.0000000000e+00 6.6666700000e-01 0.0000000000e+00 6.6666700000e-01 0.0000000000e+00 3.3333300000e-01 0.0000000000e+00 
2.7913985434e+06 3.3333300000e-01 0.0000000000e+00 6.6666700000e-01 0.0000000000e+00 6.6666700000e-01 0.0000000000e+00 3.3333300000e-01 0.0000000000e+00 
2.8403911450e+06 3.3333300000e-01 0.0000000000e+00 6.6666700000e-01 0.0000000000e+00 6.6666700000e-01 0.0000000000e+00 3.3333300000e-01 0.0000000000e+00 
2.8902436291e+06 3.3333300000e-01 0.0000000000e+00 6.6666700000e-01 0.0000000000e+00 6.6666700000e-01 0.0000000000e+00 3.3333300000e-01 0.0000000000e+00 
2.9409710878e+06 3.3333300000e-01 0.0000000000e+00 6.6666700000e-01 0.0000000000e+00 6.6666700000e-01 0.0000000000e+00 3.3333300000e-01 0.0000000000e+00 
2.9925888780e+06 3.3333300000e-01 0.0000000000e+00 6.6666700000e-01 0.0000000000e+00 6.6666700000e-01 0.0000000000e+00 3.3333300000e-01 0.0000000000e+00 
3.0451126263e+06 3.3333300000e-01 0.0000000000e+00 6.6666700000e-01 0.0000000000e+00 6.6666700000e-01 0.0000000000e+00 3.3333300000e-01 0.0000000000e+00 
3.0985582333e+06 3.3333300000e-01 0.0000000000e+00 6.6666700000e-01 0.0000000000e+00 6.6666700000e-01 0.0000000000e+00 3.3333300000e-01 0.0000000000e+00 
3.1529418788e+06 3.3333300000e-01 0.0000000000e+00 6.6666700000e-01 0.0000000000e+00 6.6666700000e-01 0.0000000000e+00 3.3333300000e-01 0.0000000000e+00 
3.2082800265e+06 3.3333300000e-01 0.0000000000e+00 6.6666700000e-01 0.0000000000e+00 6.6666700000e-01 0.0000000000e+00 3.3333300000e-01 0.0000000000e+00 
3.2645894293e+06 3.3333300000e-01 0.0000000000e+00 6.6666700000e-01 0.0000000000e+00 6.6666700000e-01 0.0000000000e+00 3.3333300000e-01 0.0000000000e+00 
3.3218871339e+06 3.3333300000e-01 0.0000000000e+00 6.6666700000e-01 0.0000000000e+00 6.6666700000e-01 0.0000000000e+00 3.3333300000e-01 0.0000000000e+00 
3.3801904861e+06 3.3333300000e-01 0.0000000000e+00 6.6666700000e-01 0.0000000000e+00 6.6666700000e-01 0.0000000000e+00 3.3333300000e-01 0.0000000000e+00 
3.4395171365e+06 3.3333300000e-01 0.0000000000e+00 6.6666700000e-01 0.0000000000e+00 6.6666700000e-01 0.0000000000e+00 3.3333300000e-01 0.0000000000e+00 
3.4998850453e+06 3.3333300000e-01 0.0000000000e+00 6.6666700000e-01 0.0000000000e+00 6.6666700000e-01 0.0000000000e+00 3.3333300000e-01 0.0000000000e+00 
3.5613124877e+06 3.3333300000e-01 0.0000000000e+00 6.6666700000e-01 0.0000000000e+00 6.6666700000e-01 0.0000000000e+00 3.3333300000e-01 0.0000000000e+00 
3.6238180600e+06 3.3333300000e-01 0.0000000000e+00 6.6666700000e-01 0.0000000000e+00 6.6666700000e-01 0.0000000000e+00 3.3333300000e-01 0.0000000000e+00 
3.6874206848e+06 3.3333300000e-01 0.0000000000e+00 6.6666700000e-01 0.0000000000e+00 6.6666700000e-01 0.0000000000e+00 3.3333300000e-01 0.0000000000e+00 
3.7521396167e+06 3.3333300000e-01 0.0000000000e+00 6.6666700000e-01 0.0000000000e+00 6.6666700000e-01 0.0000000000e+00 3.3333300000e-01 0.0000000000e+00 
3.8179944483e+06 3.3333300000e-01 0.0000000000e+00 6.6666700000e-01 0.0000000000e+00 6.6666700000e-01 0.0000000000e+00 3.3333300000e-01 0.0000000000e+00 
3.8850051162e+06 3.3333300000e-01 0.0000000000e+00 6.6666700000e-01 0.0000000000e+00 6.6666700000e-01 0.0000000000e+00 3.3333300000e-01 0.0000000000e+00 
3.9531919066e+06 3.3333300000e-01 0.0000000000e+00 6.6666700000e-01 0.0000000000e+00 6.6666700000e-01 0.0000000000e+00 3.3333300000e-01 0.0000000000e+00 
4.0225754621e+06 3.3333300000e-01 0.0000000000e+00 6.6666700000e-01 0.0000000000e+00 6.6666700000e-01 0.0000000000e+00 3.3333300000e-01 0.0000000000e+00 
4.0931767874e+06 3.3333300000e-01 0.0000000000e+00 6.6666700000e-01 0.0000000000e+00 6.6666700000e-01 0.0000000000e+00 3.3333300000e-01 0.0000000000e+00 
4.1650172560e+06 3.3333300000e-01 0.0000000000e+00 6.6666700000e-01 0.0000000000e+00 6.6666700000e-01 0.0000000000e+00 3.3333300000e-01 0.0000000000e+00 
4.2381186163e+06 3.3333300000e-01 0.0000000000e+00 6.6666700000e-01 0.0000000000e+00 6.6666700000e-01 0.0000000000e+00 3.3333300000e-01 0.0000000000e+00 
4.3125029987e+06 3.3333300000e-01 0.0000000000e+00 6.6666700000e-01 0.0000000000e+00 6.6666700000e-01 0.0000000000e+00 3.3333300000e-01 0.0000000000e+00 
4.3881929217e+06 3.3333300000e-01 0.0000000000e+00 6.6666700000e-01 0.0000000000e+00 6.6666700000e-01 0.0000000000e+00 3.3333300000e-01 0.0000000000e+00 
4.4652112994e+06 3.3333300000e-01 0.0000000000e+00 6.6666700000e-01 0.0000000000e+00 6.6666700000e-01 0.0000000000e+00 3.3333300000e-01 0.0000000000e+00 
4.5435814477e+06 3.3333300000e-01 0.0000000000e+00 6.6666700000e-01 0.0000000000e+00 6.6666700000e-01 0.0000000000e+00 3.3333300000e-01 0.0000000000e+00 
4.6233270920e+06 3.3333300000e-01 0.0000000000e+00 6.6666700000e-01 0.0000000000e+00 6.6666700000e-01 0.0000000000e+00 3.3333300000e-01 0.0000000000e+00 
4.7044723739e+06 3.3333300000e-01 0.0000000000e+00 6.6666700000e-01 0.0000000000e+00 6.6666700000e-01 0.0000000000e+00 3.3333300000e-01 0.0000000000e+00 
4.7870418590e+06 3.3333300000e-01 0.0000000000e+00 6.6666700000e-01 0.0000000000e+00 6.6666700000e-01 0.0000000000e+00 3.3333300000e-01 0.0000000000e+00 
4.8710605437e+06 3.3333300000e-01 0.0000000000e+00 6.6666700000e-01 0.0000000000e+00 6.6666700000e-01 0.0000000000e+00 3.3333300000e-01 0.0000000000e+00 
4.9565538635e+06 3.3333300000e-01 0.0000000000e+00 6.6666700000e-01 0.0000000000e+00 6.6666700000e-01 0.0000000000e+00 3.3333300000e-01 0.0000000000e+00 
5.0435476999e+06 3.3333300000e-01 0.0000000000e+00 6.6666700000e-01 0.0000000000e+00 6.6666700000e-01 0.0000000000e+00 3.3333300000e-01 0.0000000000e+00 
5.1320683890e+06 3.3333300000e-01 0.0000000000e+00 6.6666700000e-01 0.0000000000e+00 6.6666700000e-01 0.0000000000e+00 3.3333300000e-01 0.0000000000e+00 
5.2221427290e+06 3.3333300000e-01 0.0000000000e+00 6.6666700000e-01 0.0000000000e+00 6.6666700000e-01 0.0000000000e+00 3.3333300000e-01 0.0000000000e+00 
5.3137979885e+06 3.3333300000e-01 0.0000000000e+00 6.6666700000e-01 0.0000000000e+00 6.6666700000e-01 0.0000000000e+00 3.3333300000e-01 0.0000000000e+00 
5.4070619146e+06 3.3333300000e-01 0.0000000000e+00 6.6666700000e-01 0.0000000000e+00 6.6666700000e-01 0.0000000000e+00 3.3333300000e-01 0.0000000000e+00 
5.5019627414e+06 3.3333300000e-01 0.0000000000e+00 6.6666700000e-01 0.0000000000e+00 6.6666700000e-01 0.0000000000e+00 3.3333300000e-01 0.0000000000e+00 
5.5985291986e+06 3.3333300000e-01 0.0000000000e+00 6.6666700000e-01 0.0000000000e+00 6.6666700000e-01 0.0000000000e+00 3.3333300000e-01 0.0000000000e+00 
5.6967905203e+06 3.3333300000e-01 0.0000000000e+00 6.6666700000e-01 0.0000000000e+00 6.6666700000e-01 0.0000000000e+00 3.3333300000e-01 0.0000000000e+00 
5.7967764533e+06 3.3333300000e-01 0.0000000000e+00 6.6666700000e-01 0.0000000000e+00 6.6666700000e-01 0.0000000000e+00 3.3333300000e-01 0.0000000000e+00 
5.8985172669e+06 3.3333300000e-01 0.0000000000e+00 6.6666700000e-01 0.0000000000e+00 6.6666700000e-01 0.0000000000e+00 3.3333300000e-01 0.0000000000e+00 
6.0020437614e+06 3.3333300000e-01 0.0000000000e+00 6.6666700000e-01 0.0000000000e+00 6.6666700000e-01 0.0000000000e+00 3.3333300000e-01 0.0000000000e+00 
6.1073872778e+06 3.3333300000e-01 0.0000000000e+00 6.6666700000e-01 0.0000000000e+00 6.6666700000e-01 0.0000000000e+00 3.3333300000e-01 0.0000000000e+00 
6.2145797072e+06 3.3333300000e-01 0.0000000000e+00 6.6666700000e-01 0.0000000000e+00 6.6666700000e-01 0.0000000000e+00 3.3333300000e-01 0.0000000000e+00 
6.3236535003e+06 3.3333300000e-01 0.0000000000e+00 6.6666700000e-01 0.0000000000e+00 6.6666700000e-01 0.0000000000e+00 3.3333300000e-01 0.0000000000e+00 
6.4346416774e+06 3.3333300000e-01 0.0000000000e+00 6.6666700000e-01 0.0000000000e+00 6.6666700000e-01 0.0000000000e+00 3.3333300000e-01 0.0000000000e+00 
6.5475778385e+06 3.3333300000e-01 0.0000000000e+00 6.6666700000e-01 0.0000000000e+00 6.6666700000e-01 0.0000000000e+00 3.3333300000e-01 0.0000000000e+00 
6.6624961732e+06 3.3333300000e-01 0.0000000000e+00 6.6666700000e-01 0.0000000000e+00 6.6666700000e-01 0.0000000000e+00 3.3333300000e-01 0.0000000000e+00 
6.7794314710e+06 3.3333300000e-01 0.0000000000e+00 6.6666700000e-01 0.0000000000e+00 6.6666700000e-01 0.0000000000e+00 3.3333300000e-01 0.0000000000e+00 
6.8984191324e+06 3.3333300000e-01 0.0000000000e+00 6.6666700000e-01 0.0000000000e+00 6.6666700000e-01 0.0000000000e+00 3.3333300000e-01 0.0000000000e+00 
7.0194951788e+06 3.3333300000e-01 0.0000000000e+00 6.6666700000e-01 0.0000000000e+00 6.6666700000e-01 0.0000000000e+00 3.3333300000e-01 0.0000000000e+00 
7.1426962641e+06 3.3333300000e-01 0.0000000000e+00 6.6666700000e-01 0.0000000000e+00 6.6666700000e-01 0.0000000000e+00 3.3333300000e-01 0.0000000000e+00 
7.2680596855e+06 3.3333300000e-01 0.0000000000e+00 6.6666700000e-01 0.0000000000e+00 6.6666700000e-01 0.0000000000e+00 3.3333300000e-01 0.0000000000e+00 
7.3956233946e+06 3.3333300000e-01 0.0000000000e+00 6.6666700000e-01 0.0000000000e+00 6.6666700000e-01 0.0000000000e+00 3.3333300000e-01 0.0000000000e+00 
7.5254260095e+06 3.3333300000e-01 0.0000000000e+00 6.6666700000e-01 0.0000000000e+00 6.6666700000e-01 0.0000000000e+00 3.3333300000e-01 0.0000000000e+00 
7.6575068256e+06 3.3333300000e-01 0.0000000000e+00 6.6666700000e-01 0.0000000000e+00 6.6666700000e-01 0.0000000000e+00 3.3333300000e-01 0.0000000000e+00 
7.7919058283e+06 3.3333300000e-01 0.0000000000e+00 6.6666700000e-01 0.0000000000e+00 6.6666700000e-01 0.0000000000e+00 3.3333300000e-01 0.0000000000e+00 
7.9286637048e+06 3.3333300000e-01 0.0000000000e+00 6.6666700000e-01 0.0000000000e+00 6.6666700000e-01 0.0000000000e+00 3.3333300000e-01 0.0000000000e+00 
8.0678218563e+06 3.3333300000e-01 0.0000000000e+00 6.6666700000e-01 0.0000000000e+00 6.6666700000e-01 0.0000000000e+00 3.3333300000e-01 0.0000000000e+00 
8.2094224107e+06 3.3333300000e-01 0.0000000000e+00 6.6666700000e-01 0.0000000000e+00 6.6666700000e-01 0.0000000000e+00 3.3333300000e-01 0.0000000000e+00 
8.3535082353e+06 3.3333300000e-01 0.0000000000e+00 6.6666700000e-01 0.0000000000e+00 6.6666700000e-01 0.0000000000e+00 3.3333300000e-01 0.0000000000e+00 
8.5001229497e+06 3.3333300000e-01 0.0000000000e+00 6.6666700000e-01 0.0000000000e+00 6.6666700000e-01 0.0000000000e+00 3.3333300000e-01 0.0000000000e+00 
8.6493109391e+06 3.3333300000e-01 0.0000000000e+00 6.6666700000e-01 0.0000000000e+00 6.6666700000e-01 0.0000000000e+00 3.3333300000e-01 0.0000000000e+00 
8.8011173679e+06 3.3333300000e-01 0.0000000000e+00 6.6666700000e-01 0.0000000000e+00 6.6666700000e-01 0.0000000000e+00 3.3333300000e-01 0.0000000000e+00 
8.9555881930e+06 3.3333300000e-01 0.0000000000e+00 6.6666700000e-01 0.0000000000e+00 6.6666700000e-01 0.0000000000e+00 3.3333300000e-01 0.0000000000e+00 
9.1127701779e+06 3.3333300000e-01 0.0000000000e+00 6.6666700000e-01 0.0000000000e+00 6.6666700000e-01 0.0000000000e+00 3.3333300000e-01 0.0000000000e+00 
9.2727109069e+06 3.3333300000e-01 0.0000000000e+00 6.6666700000e-01 0.0000000000e+00 6.6666700000e-01 0.0000000000e+00 3.3333300000e-01 0.0000000000e+00 
9.4354587995e+06 3.3333300000e-01 0.0000000000e+00 6.6666700000e-01 0.0000000000e+00 6.6666700000e-01 0.0000000000e+00 3.3333300000e-01 0.0000000000e+00 
9.6010631250e+06 3.3333300000e-01 0.0000000000e+00 6.6666700000e-01 0.0000000000e+00 6.6666700000e-01 0.0000000000e+00 3.3333300000e-01 0.0000000000e+00 
9.7695740175e+06 3.3333300000e-01 0.0000000000e+00 6.6666700000e-01 0.0000000000e+00 6.6666700000e-01 0.0000000000e+00 3.3333300000e-01 0.0000000000e+00 
9.9410424909e+06 3.3333300000e-01 0.0000000000e+00 6.6666700000e-01 0.0000000000e+00 6.6666700000e-01 0.0000000000e+00 3.3333300000e-01 0.0000000000e+00 
1.0115520454e+07 3.3333300000e-01 0.0000000000e+00 6.6666700000e-01 0.0000000000e+00 6.6666700000e-01 0.0000000000e+00 3.3333300000e-01 0.0000000000e+00 
1.0293060729e+07 3.3333300000e-01 0.0000000000e+00 6.6666700000e-01 0.0000000000e+00 6.6666700000e-01 0.0000000000e+00 3.3333300000e-01 0.0000000000e+00 
1.0473717061e+07 3.3333300000e-01 0.0000000000e+00 6.6666700000e-01 0.0000000000e+00 6.6666700000e-01 0.0000000000e+00 3.3333300000e-01 0.0000000000e+00 
1.0657544142e+07 3.3333300000e-01 0.0000000000e+00 6.6666700000e-01 0.0000000000e+00 6.6666700000e-01 0.0000000000e+00 3.3333300000e-01 0.0000000000e+00 
1.0844597623e+07 3.3333300000e-01 0.0000000000e+00 6.6666700000e-01 0.0000000000e+00 6.6666700000e-01 0.0000000000e+00 3.3333300000e-01 0.0000000000e+00 
1.1034934130e+07 3.3333300000e-01 0.0000000000e+00 6.6666700000e-01 0.0000000000e+00 6.6666700000e-01 0.0000000000e+00 3.3333300000e-01 0.0000000000e+00 
1.1228611286e+07 3.3333300000e-01 0.0000000000e+00 6.6666700000e-01 0.0000000000e+00 6.6666700000e-01 0.0000000000e+00 3.3333300000e-01 0.0000000000e+00 
1.1425687723e+07 3.3333300000e-01 0.0000000000e+00 6.6666700000e-01 0.0000000000e+00 6.6666700000e-01 0.0000000000e+00 3.3333300000e-01 0.0000000000e+00 
1.1626223102e+07 3.3333300000e-01 0.0000000000e+00 6.6666700000e-01 0.0000000000e+00 6.6666700000e-01 0.0000000000e+00 3.3333300000e-01 0.0000000000e+00 
1.1830278133e+07 3.3333300000e-01 0.0000000000e+00 6.6666700000e-01 0.0000000000e+00 6.6666700000e-01 0.0000000000e+00 3.3333300000e-01 0.0000000000e+00 
1.2037914589e+07 3.3333300000e-01 0.0000000000e+00 6.6666700000e-01 0.0000000000e+00 6.6666700000e-01 0.0000000000e+00 3.3333300000e-01 0.0000000000e+00 
1.2249195330e+07 3.3333300000e-01 0.0000000000e+00 6.6666700000e-01 0.0000000000e+00 6.6666700000e-01 0.0000000000e+00 3.3333300000e-01 0.0000000000e+00 
1.2464184317e+07 3.3333300000e-01 0.0000000000e+00 6.6666700000e-01 0.0000000000e+00 6.6666700000e-01 0.0000000000e+00 3.3333300000e-01 0.0000000000e+00 
1.2682946635e+07 3.3333300000e-01 0.0000000000e+00 6.6666700000e-01 0.0000000000e+00 6.6666700000e-01 0.0000000000e+00 3.3333300000e-01 0.0000000000e+00 
1.2905548510e+07 3.3333300000e-01 0.0000000000e+00 6.6666700000e-01 0.0000000000e+00 6.6666700000e-01 0.0000000000e+00 3.3333300000e-01 0.0000000000e+00 
1.3132057332e+07 3.3333300000e-01 0.0000000000e+00 6.6666700000e-01 0.0000000000e+00 6.6666700000e-01 0.0000000000e+00 3.3333300000e-01 0.0000000000e+00 
1.3362541673e+07 3.3333300000e-01 0.0000000000e+00 6.6666700000e-01 0.0000000000e+00 6.6666700000e-01 0.0000000000e+00 3.3333300000e-01 0.0000000000e+00 
1.3597071307e+07 3.3333300000e-01 0.0000000000e+00 6.6666700000e-01 0.0000000000e+00 6.6666700000e-01 0.0000000000e+00 3.3333300000e-01 0.0000000000e+00 
1.3835717235e+07 3.3333300000e-01 0.0000000000e+00 6.6666700000e-01 0.0000000000e+00 6.6666700000e-01 0.0000000000e+00 3.3333300000e-01 0.0000000000e+00 
1.4078551703e+07 3.3333300000e-01 0.0000000000e+00 6.6666700000e-01 0.0000000000e+00 6.6666700000e-01 0.0000000000e+00 3.3333300000e-01 0.0000000000e+00 
1.4325648226e+07 3.3333300000e-01 0.0000000000e+00 6.6666700000e-01 0.0000000000e+00 6.6666700000e-01 0.0000000000e+00 3.3333300000e-01 0.0000000000e+00 
1.4577081607e+07 3.3333300000e-01 0.0000000000e+00 6.6666700000e-01 0.0000000000e+00 6.6666700000e-01 0.0000000000e+00 3.3333300000e-01 0.0000000000e+00 
1.4832927965e+07 3.3333300000e-01 0.0000000000e+00 6.6666700000e-01 0.0000000000e+00 6.6666700000e-01 0.0000000000e+00 3.3333300000e-01 0.0000000000e+00 
1.5093264753e+07 3.3333300000e-01 0.0000000000e+00 6.6666700000e-01 0.0000000000e+00 6.6666700000e-01 0.0000000000e+00 3.3333300000e-01 0.0000000000e+00 
1.5358170782e+07 3.3333300000e-01 0.0000000000e+00 6.6666700000e-01 0.0000000000e+00 6.6666700000e-01 0.0000000000e+00 3.3333300000e-01 0.0000000000e+00 
1.5627726250e+07 3.3333300000e-01 0.0000000000e+00 6.6666700000e-01 0.0000000000e+00 6.6666700000e-01 0.0000000000e+00 3.3333300000e-01 0.0000000000e+00 
1.5902012761e+07 3.3333300000e-01 0.0000000000e+00 6.6666700000e-01 0.0000000000e+00 6.6666700000e-01 0.0000000000e+00 3.3333300000e-01 0.0000000000e+00 
1.6181113348e+07 3.3333300000e-01 0.0000000000e+00 6.6666700000e-01 0.0000000000e+00 6.6666700000e-01 0.0000000000e+00 3.3333300000e-01 0.0000000000e+00 
1.6465112507e+07 3.3333300000e-01 0.0000000000e+00 6.6666700000e-01 0.0000000000e+00 6.6666700000e-01 0.0000000000e+00 3.3333300000e-01 0.0000000000e+00 
1.6754096213e+07 3.3333300000e-01 0.0000000000e+00 6.6666700000e-01 0.0000000000e+00 6.6666700000e-01 0.0000000000e+00 3.3333300000e-01 0.0000000000e+00 
1.7048151952e+07 3.3333300000e-01 0.0000000000e+00 6.6666700000e-01 0.0000000000e+00 6.6666700000e-01 0.0000000000e+00 3.3333300000e-01 0.0000000000e+00 
1.7347368743e+07 3.3333300000e-01 0.0000000000e+00 6.6666700000e-01 0.0000000000e+00 6.6666700000e-01 0.0000000000e+00 3.3333300000e-01 0.0000000000e+00 
1.7651837170e+07 3.3333300000e-01 0.0000000000e+00 6.6666700000e-01 0.0000000000e+00 6.6666700000e-01 0.0000000000e+00 3.3333300000e-01 0.0000000000e+00 
1.7961649406e+07 3.3333300000e-01 0.0000000000e+00 6.6666700000e-01 0.0000000000e+00 6.6666700000e-01 0.0000000000e+00 3.3333300000e-01 0.0000000000e+00 
1.8276899242e+07 3.3333300000e-01 0.0000000000e+00 6.6666700000e-01 0.0000000000e+00 6.6666700000e-01 0.0000000000e+00 3.3333300000e-01 0.0000000000e+00 
1.8597682113e+07 3.3333300000e-01 0.0000000000e+00 6.6666700000e-01 0.0000000000e+00 6.6666700000e-01 0.0000000000e+00 3.3333300000e-01 0.0000000000e+00 
1.8924095134e+07 3.3333300000e-01 0.0000000000e+00 6.6666700000e-01 0.0000000000e+00 6.6666700000e-01 0.0000000000e+00 3.3333300000e-01 0.0000000000e+00 
1.9256237118e+07 3.3333300000e-01 0.0000000000e+00 6.6666700000e-01 0.0000000000e+00 6.6666700000e-01 0.0000000000e+00 3.3333300000e-01 0.0000000000e+00 
1.9594208618e+07 3.3333300000e-01 0.0000000000e+00 6.6666700000e-01 0.0000000000e+00 6.6666700000e-01 0.0000000000e+00 3.3333300000e-01 0.0000000000e+00 
1.9938111948e+07 3.3333300000e-01 0.0000000000e+00 6.6666700000e-01 0.0000000000e+00 6.6666700000e-01 0.0000000000e+00 3.3333300000e-01 0.0000000000e+00 
2.0288051220e+07 3.3333300000e-01 0.0000000000e+00 6.6666700000e-01 0.0000000000e+00 6.6666700000e-01 0.0000000000e+00 3.3333300000e-01 0.0000000000e+00 
2.0644132372e+07 3.3333300000e-01 0.0000000000e+00 6.6666700000e-01 0.0000000000e+00 6.6666700000e-01 0.0000000000e+00 3.3333300000e-01 0.0000000000e+00 
2.1006463202e+07 3.3333300000e-01 0.0000000000e+00 6.6666700000e-01 0.0000000000e+00 6.6666700000e-01 0.0000000000e+00 3.3333300000e-01 0.0000000000e+00 
2.1375153399e+07 3.3333300000e-01 0.0000000000e+00 6.6666700000e-01 0.0000000000e+00 6.6666700000e-01 0.0000000000e+00 3.3333300000e-01 0.0000000000e+00 
2.1750314580e+07 3.3333300000e-01 0.0000000000e+00 6.6666700000e-01 0.0000000000e+00 6.6666700000e-01 0.0000000000e+00 3.3333300000e-01 0.0000000000e+00 
2.2132060317e+07 3.3333300000e-01 0.0000000000e+00 6.6666700000e-01 0.0000000000e+00 6.6666700000e-01 0.0000000000e+00 3.3333300000e-01 0.0000000000e+00 
2.2520506178e+07 3.3333300000e-01 0.0000000000e+00 6.6666700000e-01 0.0000000000e+00 6.6666700000e-01 0.0000000000e+00 3.3333300000e-01 0.0000000000e+00 
2.2915769760e+07 3.3333300000e-01 0.0000000000e+00 6.6666700000e-01 0.0000000000e+00 6.6666700000e-01 0.0000000000e+00 3.3333300000e-01 0.0000000000e+00 
2.3317970721e+07 3.3333300000e-01 0.0000000000e+00 6.6666700000e-01 0.0000000000e+00 6.6666700000e-01 0.0000000000e+00 3.3333300000e-01 0.0000000000e+00 
2.3727230821e+07 3.3333300000e-01 0.0000000000e+00 6.6666700000e-01 0.0000000000e+00 6.6666700000e-01 0.0000000000e+00 3.3333300000e-01 0.0000000000e+00 
2.4143673957e+07 3.3333300000e-01 0.0000000000e+00 6.6666700000e-01 0.0000000000e+00 6.6666700000e-01 0.0000000000e+00 3.3333300000e-01 0.0000000000e+00 
2.4567426201e+07 3.3333300000e-01 0.0000000000e+00 6.6666700000e-01 0.0000000000e+00 6.6666700000e-01 0.0000000000e+00 3.3333300000e-01 0.0000000000e+00 
2.4998615838e+07 3.3333300000e-01 0.0000000000e+00 6.6666700000e-01 0.0000000000e+00 6.6666700000e-01 0.0000000000e+00 3.3333300000e-01 0.0000000000e+00 
2.5437373401e+07 3.3333300000e-01 0.0000000000e+00 6.6666700000e-01 0.0000000000e+00 6.6666700000e-01 0.0000000000e+00 3.3333300000e-01 0.0000000000e+00 
2.5883831719e+07 3.3333300000e-01 0.0000000000e+00 6.6666700000e-01 0.0000000000e+00 6.6666700000e-01 0.0000000000e+00 3.3333300000e-01 0.0000000000e+00 
2.6338125950e+07 3.3333300000e-01 0.0000000000e+00 6.6666700000e-01 0.0000000000e+00 6.6666700000e-01 0.0000000000e+00 3.3333300000e-01 0.0000000000e+00 
2.6800393623e+07 3.3333300000e-01 0.0000000000e+00 6.6666700000e-01 0.0000000000e+00 6.6666700000e-01 0.0000000000e+00 3.3333300000e-01 0.0000000000e+00 
2.7270774683e+07 3.3333300000e-01 0.0000000000e+00 6.6666700000e-01 0.0000000000e+00 6.6666700000e-01 0.0000000000e+00 3.3333300000e-01 0.0000000000e+00 
2.7749411529e+07 3.3333300000e-01 0.0000000000e+00 6.6666700000e-01 0.0000000000e+00 6.6666700000e-01 0.0000000000e+00 3.3333300000e-01 0.0000000000e+00 
2.8236449063e+07 3.3333300000e-01 0.0000000000e+00 6.6666700000e-01 0.0000000000e+00 6.6666700000e-01 0.0000000000e+00 3.3333300000e-01 0.0000000000e+00 
2.8732034725e+07 3.3333300000e-01 0.0000000000e+00 6.6666700000e-01 0.0000000000e+00 6.6666700000e-01 0.0000000000e+00 3.3333300000e-01 0.0000000000e+00 
2.9236318548e+07 3.3333300000e-01 0.0000000000e+00 6.6666700000e-01 0.0000000000e+00 6.6666700000e-01 0.0000000000e+00 3.3333300000e-01 0.0000000000e+00 
2.9749453194e+07 3.3333300000e-01 0.0000000000e+00 6.6666700000e-01 0.0000000000e+00 6.6666700000e-01 0.0000000000e+00 3.3333300000e-01 0.0000000000e+00 
3.0271594008e+07 3.3333300000e-01 0.0000000000e+00 6.6666700000e-01 0.0000000000e+00 6.6666700000e-01 0.0000000000e+00 3.3333300000e-01 0.0000000000e+00 
3.0802899058e+07 3.3333300000e-01 0.0000000000e+00 6.6666700000e-01 0.0000000000e+00 6.6666700000e-01 0.0000000000e+00 3.3333300000e-01 0.0000000000e+00 
3.1343529188e+07 3.3333300000e-01 0.0000000000e+00 6.6666700000e-01 0.0000000000e+00 6.6666700000e-01 0.0000000000e+00 3.3333300000e-01 0.0000000000e+00 
3.1893648066e+07 3.3333300000e-01 0.0000000000e+00 6.6666700000e-01 0.0000000000e+00 6.6666700000e-01 0.0000000000e+00 3.3333300000e-01 0.0000000000e+00 
3.2453422232e+07 3.3333300000e-01 0.0000000000e+00 6.6666700000e-01 0.0000000000e+00 6.6666700000e-01 0.0000000000e+00 3.3333300000e-01 0.0000000000e+00 
3.3023021148e+07 3.3333300000e-01 0.0000000000e+00 6.6666700000e-01 0.0000000000e+00 6.6666700000e-01 0.0000000000e+00 3.3333300000e-01 0.0000000000e+00 
3.3602617250e+07 3.3333300000e-01 0.0000000000e+00 6.6666700000e-01 0.0000000000e+00 6.6666700000e-01 0.0000000000e+00 3.3333300000e-01 0.0000000000e+00 
3.4192386002e+07 3.3333300000e-01 0.0000000000e+00 6.6666700000e-01 0.0000000000e+00 6.6666700000e-01 0.0000000000e+00 3.3333300000e-01 0.0000000000e+00 
3.4792505948e+07 3.3333300000e-01 0.0000000000e+00 6.6666700000e-01 0.0000000000e+00 6.6666700000e-01 0.0000000000e+00 3.3333300000e-01 0.0000000000e+00 
3.5403158763e+07 3.3333300000e-01 0.0000000000e+00 6.6666700000e-01 0.0000000000e+00 6.6666700000e-01 0.0000000000e+00 3.3333300000e-01 0.0000000000e+00 
3.6024529314e+07 3.3333300000e-01 0.0000000000e+00 6.6666700000e-01 0.0000000000e+00 6.6666700000e-01 0.0000000000e+00 3.3333300000e-01 0.0000000000e+00 
3.6656805709e+07 3.3333300000e-01 0.0000000000e+00 6.6666700000e-01 0.0000000000e+00 6.6666700000e-01 0.0000000000e+00 3.3333300000e-01 0.0000000000e+00 
3.7300179361e+07 3.3333300000e-01 0.0000000000e+00 6.6666700000e-01 0.0000000000e+00 6.6666700000e-01 0.0000000000e+00 3.3333300000e-01 0.0000000000e+00 
3.7954845041e+07 3.3333300000e-01 0.0000000000e+00 6.6666700000e-01 0.0000000000e+00 6.6666700000e-01 0.0000000000e+00 3.3333300000e-01 0.0000000000e+00 
3.8621000937e+07 3.3333300000e-01 0.0000000000e+00 6.6666700000e-01 0.0000000000e+00 6.6666700000e-01 0.0000000000e+00 3.3333300000e-01 0.0000000000e+00 
3.9298848718e+07 3.3333300000e-01 0.0000000000e+00 6.6666700000e-01 0.0000000000e+00 6.6666700000e-01 0.0000000000e+00 3.3333300000e-01 0.0000000000e+00 
3.9988593592e+07 3.3333300000e-01 0.0000000000e+00 6.6666700000e-01 0.0000000000e+00 6.6666700000e-01 0.0000000000e+00 3.3333300000e-01 0.0000000000e+00 
4.0690444367e+07 3.3333300000e-01 0.0000000000e+00 6.6666700000e-01 0.0000000000e+00 6.6666700000e-01 0.0000000000e+00 3.3333300000e-01 0.0000000000e+00 
4.1404613517e+07 3.3333300000e-01 0.0000000000e+00 6.6666700000e-01 0.0000000000e+00 6.6666700000e-01 0.0000000000e+00 3.3333300000e-01 0.0000000000e+00 
4.2131317246e+07 3.3333300000e-01 0.0000000000e+00 6.6666700000e-01 0.0000000000e+00 6.6666700000e-01 0.0000000000e+00 3.3333300000e-01 0.0000000000e+00 
4.2870775552e+07 3.3333300000e-01 0.0000000000e+00 6.6666700000e-01 0.0000000000e+00 6.6666700000e-01 0.0000000000e+00 3.3333300000e-01 0.0000000000e+00 
4.3623212293e+07 3.3333300000e-01 0.0000000000e+00 6.6666700000e-01 0.0000000000e+00 6.6666700000e-01 0.0000000000e+00 3.3333300000e-01 0.0000000000e+00 
4.4388855258e+07 3.3333300000e-01 0.0000000000e+00 6.6666700000e-01 0.0000000000e+00 6.6666700000e-01 0.0000000000e+00 3.3333300000e-01 0.0000000000e+00 
4.5167936232e+07 3.3333300000e-01 0.0000000000e+00 6.6666700000e-01 0.0000000000e+00 6.6666700000e-01 0.0000000000e+00 3.3333300000e-01 0.0000000000e+00 
4.5960691070e+07 3.3333300000e-01 0.0000000000e+00 6.6666700000e-01 0.0000000000e+00 6.6666700000e-01 0.0000000000e+00 3.3333300000e-01 0.0000000000e+00 
4.6767359766e+07 3.3333300000e-01 0.0000000000e+00 6.6666700000e-01 0.0000000000e+00 6.6666700000e-01 0.0000000000e+00 3.3333300000e-01 0.0000000000e+00 
4.7588186526e+07 3.3333300000e-01 0.0000000000e+00 6.6666700000e-01 0.0000000000e+00 6.6666700000e-01 0.0000000000e+00 3.3333300000e-01 0.0000000000e+00 
4.8423419841e+07 3.3333300000e-01 0.0000000000e+00 6.6666700000e-01 0.0000000000e+00 6.6666700000e-01 0.0000000000e+00 3.3333300000e-01 0.0000000000e+00 
4.9273312565e+07 3.3333300000e-01 0.0000000000e+00 6.6666700000e-01 0.0000000000e+00 6.6666700000e-01 0.0000000000e+00 3.3333300000e-01 0.0000000000e+00 
5.0138121990e+07 3.3333300000e-01 0.0000000000e+00 6.6666700000e-01 0.0000000000e+00 6.6666700000e-01 0.0000000000e+00 3.3333300000e-01 0.0000000000e+00 
5.1018109921e+07 3.3333300000e-01 0.0000000000e+00 6.6666700000e-01 0.0000000000e+00 6.6666700000e-01 0.0000000000e+00 3.3333300000e-01 0.0000000000e+00 
5.1913542763e+07 3.3333300000e-01 0.0000000000e+00 6.6666700000e-01 0.0000000000e+00 6.6666700000e-01 0.0000000000e+00 3.3333300000e-01 0.0000000000e+00 
5.2824691592e+07 3.3333300000e-01 0.0000000000e+00 6.6666700000e-01 0.0000000000e+00 6.6666700000e-01 0.0000000000e+00 3.3333300000e-01 0.0000000000e+00 
5.3751832244e+07 3.3333300000e-01 0.0000000000e+00 6.6666700000e-01 0.0000000000e+00 6.6666700000e-01 0.0000000000e+00 3.3333300000e-01 0.0000000000e+00 
5.4695245395e+07 3.3333300000e-01 0.0000000000e+00 6.6666700000e-01 0.0000000000e+00 6.6666700000e-01 0.0000000000e+00 3.3333300000e-01 0.0000000000e+00 
5.5655216650e+07 3.3333300000e-01 0.0000000000e+00 6.6666700000e-01 0.0000000000e+00 6.6666700000e-01 0.0000000000e+00 3.3333300000e-01 0.0000000000e+00 
5.6632036624e+07 3.3333300000e-01 0.0000000000e+00 6.6666700000e-01 0.0000000000e+00 6.6666700000e-01 0.0000000000e+00 3.3333300000e-01 0.0000000000e+00 
5.7626001033e+07 3.3333300000e-01 0.0000000000e+00 6.6666700000e-01 0.0000000000e+00 6.6666700000e-01 0.0000000000e+00 3.3333300000e-01 0.0000000000e+00 
5.8637410784e+07 3.3333300000e-01 0.0000000000e+00 6.6666700000e-01 0.0000000000e+00 6.6666700000e-01 0.0000000000e+00 3.3333300000e-01 0.0000000000e+00 
5.9666572064e+07 3.3333300000e-01 0.0000000000e+00 6.6666700000e-01 0.0000000000e+00 6.6666700000e-01 0.0000000000e+00 3.3333300000e-01 0.0000000000e+00 
6.0713796437e+07 3.3333300000e-01 0.0000000000e+00 6.6666700000e-01 0.0000000000e+00 6.6666700000e-01 0.0000000000e+00 3.3333300000e-01 0.0000000000e+00 
6.1779400932e+07 3.3333300000e-01 0.0000000000e+00 6.6666700000e-01 0.0000000000e+00 6.6666700000e-01 0.0000000000e+00 3.3333300000e-01 0.0000000000e+00 
6.2863708144e+07 3.3333300000e-01 0.0000000000e+00 6.6666700000e-01 0.0000000000e+00 6.6666700000e-01 0.0000000000e+00 3.3333300000e-01 0.0000000000e+00 
6.3967046329e+07 3.3333300000e-01 0.0000000000e+00 6.6666700000e-01 0.0000000000e+00 6.6666700000e-01 0.0000000000e+00 3.3333300000e-01 0.0000000000e+00 
6.5089749505e+07 3.3333300000e-01 0.0000000000e+00 6.6666700000e-01 0.0000000000e+00 6.6666700000e-01 0.0000000000e+00 3.3333300000e-01 0.0000000000e+00 
6.6232157553e+07 3.3333300000e-01 0.0000000000e+00 6.6666700000e-01 0.0000000000e+00 6.6666700000e-01 0.0000000000e+00 3.3333300000e-01 0.0000000000e+00 
6.7394616318e+07 3.3333300000e-01 0.0000000000e+00 6.6666700000e-01 0.0000000000e+00 6.6666700000e-01 0.0000000000e+00 3.3333300000e-01 0.0000000000e+00 
6.8577477715e+07 3.3333300000e-01 0.0000000000e+00 6.6666700000e-01 0.0000000000e+00 6.6666700000e-01 0.0000000000e+00 3.3333300000e-01 0.0000000000e+00 
6.9781099837e+07 3.3333300000e-01 0.0000000000e+00 6.6666700000e-01 0.0000000000e+00 6.6666700000e-01 0.0000000000e+00 3.3333300000e-01 0.0000000000e+00 
7.1005847061e+07 3.3333300000e-01 0.0000000000e+00 6.6666700000e-01 0.0000000000e+00 6.6666700000e-01 0.0000000000e+00 3.3333300000e-01 0.0000000000e+00 
7.2252090160e+07 3.3333300000e-01 0.0000000000e+00 6.6666700000e-01 0.0000000000e+00 6.6666700000e-01 0.0000000000e+00 3.3333300000e-01 0.0000000000e+00 
7.3520206413e+07 3.3333300000e-01 0.0000000000e+00 6.6666700000e-01 0.0000000000e+00 6.6666700000e-01 0.0000000000e+00 3.3333300000e-01 0.0000000000e+00 
7.4810579722e+07 3.3333300000e-01 0.0000000000e+00 6.6666700000e-01 0.0000000000e+00 6.6666700000e-01 0.0000000000e+00 3.3333300000e-01 0.0000000000e+00 
7.6123600727e+07 3.3333300000e-01 0.0000000000e+00 6.6666700000e-01 0.0000000000e+00 6.6666700000e-01 0.0000000000e+00 3.3333300000e-01 0.0000000000e+00 
7.7459666924e+07 3.3333300000e-01 0.0000000000e+00 6.6666700000e-01 0.0000000000e+00 6.6666700000e-01 0.0000000000e+00 3.3333300000e-01 0.0000000000e+00 
7.8819182785e+07 3.3333300000e-01 0.0000000000e+00 6.6666700000e-01 0.0000000000e+00 6.6666700000e-01 0.0000000000e+00 3.3333300000e-01 0.0000000000e+00 
8.0202559883e+07 3.3333300000e-01 0.0000000000e+00 6.6666700000e-01 0.0000000000e+00 6.6666700000e-01 0.0000000000e+00 3.3333300000e-01 0.0000000000e+00 
8.1610217011e+07 3.3333300000e-01 0.0000000000e+00 6.6666700000e-01 0.0000000000e+00 6.6666700000e-01 0.0000000000e+00 3.3333300000e-01 0.0000000000e+00 
8.3042580315e+07 3.3333300000e-01 0.0000000000e+00 6.6666700000e-01 0.0000000000e+00 6.6666700000e-01 0.0000000000e+00 3.3333300000e-01 0.0000000000e+00 
8.4500083420e+07 3.3333300000e-01 0.0000000000e+00 6.6666700000e-01 0.0000000000e+00 6.6666700000e-01 0.0000000000e+00 3.3333300000e-01 0.0000000000e+00 
8.5983167563e+07 3.3333300000e-01 0.0000000000e+00 6.6666700000e-01 0.0000000000e+00 6.6666700000e-01 0.0000000000e+00 3.3333300000e-01 0.0000000000e+00 
8.7492281722e+07 3.3333300000e-01 0.0000000000e+00 6.6666700000e-01 0.0000000000e+00 6.6666700000e-01 0.0000000000e+00 3.3333300000e-01 0.0000000000e+00 
8.9027882757e+07 3.3333300000e-01 0.0000000000e+00 6.6666700000e-01 0.0000000000e+00 6.6666700000e-01 0.0000000000e+00 3.3333300000e-01 0.0000000000e+00 
9.0590435548e+07 3.3333300000e-01 0.0000000000e+00 6.6666700000e-01 0.0000000000e+00 6.6666700000e-01 0.0000000000e+00 3.3333300000e-01 0.0000000000e+00 
9.2180413131e+07 3.3333300000e-01 0.0000000000e+00 6.6666700000e-01 0.0000000000e+00 6.6666700000e-01 0.0000000000e+00 3.3333300000e-01 0.0000000000e+00 
9.3798296847e+07 3.3333300000e-01 0.0000000000e+00 6.6666700000e-01 0.0000000000e+00 6.6666700000e-01 0.0000000000e+00 3.3333300000e-01 0.0000000000e+00 
9.5444576484e+07 3.3333300000e-01 0.0000000000e+00 6.6666700000e-01 0.0000000000e+00 6.6666700000e-01 0.0000000000e+00 3.3333300000e-01 0.0000000000e+00 
9.7119750426e+07 3.3333300000e-01 0.0000000000e+00 6.6666700000e-01 0.0000000000e+00 6.6666700000e-01 0.0000000000e+00 3.3333300000e-01 0.0000000000e+00 
9.8824325806e+07 3.3333300000e-01 0.0000000000e+00 6.6666700000e-01 0.0000000000e+00 6.6666700000e-01 0.0000000000e+00 3.3333300000e-01 0.0000000000e+00 
1.0055881866e+08 3.3333300000e-01 0.0000000000e+00 6.6666700000e-01 0.0000000000e+00 6.6666700000e-01 0.0000000000e+00 3.3333300000e-01 0.0000000000e+00 
1.0232375406e+08 3.3333300000e-01 0.0000000000e+00 6.6666700000e-01 0.0000000000e+00 6.6666700000e-01 0.0000000000e+00 3.3333300000e-01 0.0000000000e+00 
1.0411966634e+08 3.3333300000e-01 0.0000000000e+00 6.6666700000e-01 0.0000000000e+00 6.6666700000e-01 0.0000000000e+00 3.3333300000e-01 0.0000000000e+00 
1.0594709916e+08 3.3333300000e-01 0.0000000000e+00 6.6666700000e-01 0.0000000000e+00 6.6666700000e-01 0.0000000000e+00 3.3333300000e-01 0.0000000000e+00 
1.0780660576e+08 3.3333300000e-01 0.0000000000e+00 6.6666700000e-01 0.0000000000e+00 6.6666700000e-01 0.0000000000e+00 3.3333300000e-01 0.0000000000e+00 
1.0969874907e+08 3.3333300000e-01 0.0000000000e+00 6.6666700000e-01 0.0000000000e+00 6.6666700000e-01 0.0000000000e+00 3.3333300000e-01 0.0000000000e+00 
1.1162410191e+08 3.3333300000e-01 0.0000000000e+00 6.6666700000e-01 0.0000000000e+00 6.6666700000e-01 0.0000000000e+00 3.3333300000e-01 0.0000000000e+00 
1.1358324714e+08 3.3333300000e-01 0.0000000000e+00 6.6666700000e-01 0.0000000000e+00 6.6666700000e-01 0.0000000000e+00 3.3333300000e-01 0.0000000000e+00 
1.1557677786e+08 3.3333300000e-01 0.0000000000e+00 6.6666700000e-01 0.0000000000e+00 6.6666700000e-01 0.0000000000e+00 3.3333300000e-01 0.0000000000e+00 
1.1760529759e+08 3.3333300000e-01 0.0000000000e+00 6.6666700000e-01 0.0000000000e+00 6.6666700000e-01 0.0000000000e+00 3.3333300000e-01 0.0000000000e+00 
1.1966942043e+08 3.3333300000e-01 0.0000000000e+00 6.6666700000e-01 0.0000000000e+00 6.6666700000e-01 0.0000000000e+00 3.3333300000e-01 0.0000000000e+00 
1.2176977125e+08 3.3333300000e-01 0.0000000000e+00 6.6666700000e-01 0.0000000000e+00 6.6666700000e-01 0.0000000000e+00 3.3333300000e-01 0.0000000000e+00 
1.2390698591e+08 3.3333300000e-01 0.0000000000e+00 6.6666700000e-01 0.0000000000e+00 6.6666700000e-01 0.0000000000e+00 3.3333300000e-01 0.0000000000e+00 
1.2608171141e+08 3.3333300000e-01 0.0000000000e+00 6.6666700000e-01 0.0000000000e+00 6.6666700000e-01 0.0000000000e+00 3.3333300000e-01 0.0000000000e+00 
1.2829460611e+08 3.3333300000e-01 0.0000000000e+00 6.6666700000e-01 0.0000000000e+00 6.6666700000e-01 0.0000000000e+00 3.3333300000e-01 0.0000000000e+00 
1.3054633993e+08 3.3333300000e-01 0.0000000000e+00 6.6666700000e-01 0.0000000000e+00 6.6666700000e-01 0.0000000000e+00 3.3333300000e-01 0.0000000000e+00 
1.3283759455e+08 3.3333300000e-01 0.0000000000e+00 6.6666700000e-01 0.0000000000e+00 6.6666700000e-01 0.0000000000e+00 3.3333300000e-01 0.0000000000e+00 
1.3516906361e+08 3.3333300000e-01 0.0000000000e+00 6.6666700000e-01 0.0000000000e+00 6.6666700000e-01 0.0000000000e+00 3.3333300000e-01 0.0000000000e+00 
1.3754145292e+08 3.3333300000e-01 0.0000000000e+00 6.6666700000e-01 0.0000000000e+00 6.6666700000e-01 0.0000000000e+00 3.3333300000e-01 0.0000000000e+00 
1.3995548069e+08 3.3333300000e-01 0.0000000000e+00 6.6666700000e-01 0.0000000000e+00 6.6666700000e-01 0.0000000000e+00 3.3333300000e-01 0.0000000000e+00 
1.4241187772e+08 3.3333300000e-01 0.0000000000e+00 6.6666700000e-01 0.0000000000e+00 6.6666700000e-01 0.0000000000e+00 3.3333300000e-01 0.0000000000e+00 
1.4491138765e+08 3.3333300000e-01 0.0000000000e+00 6.6666700000e-01 0.0000000000e+00 6.6666700000e-01 0.0000000000e+00 3.3333300000e-01 0.0000000000e+00 
1.4745476717e+08 3.3333300000e-01 0.0000000000e+00 6.6666700000e-01 0.0000000000e+00 6.6666700000e-01 0.0000000000e+00 3.3333300000e-01 0.0000000000e+00 
1.5004278623e+08 3.3333300000e-01 0.0000000000e+00 6.6666700000e-01 0.0000000000e+00 6.6666700000e-01 0.0000000000e+00 3.3333300000e-01 0.0000000000e+00 
1.5267622833e+08 3.3333300000e-01 0.0000000000e+00 6.6666700000e-01 0.0000000000e+00 6.6666700000e-01 0.0000000000e+00 3.3333300000e-01 0.0000000000e+00 
1.5535589069e+08 3.3333300000e-01 0.0000000000e+00 6.6666700000e-01 0.0000000000e+00 6.6666700000e-01 0.0000000000e+00 3.3333300000e-01 0.0000000000e+00 
1.5808258454e+08 3.3333300000e-01 0.0000000000e+00 6.6666700000e-01 0.0000000000e+00 6.6666700000e-01 0.0000000000e+00 3.3333300000e-01 0.0000000000e+00 
1.6085713535e+08 3.3333300000e-01 0.0000000000e+00 6.6666700000e-01 0.0000000000e+00 6.6666700000e-01 0.0000000000e+00 3.3333300000e-01 0.0000000000e+00 
1.6368038305e+08 3.3333300000e-01 0.0000000000e+00 6.6666700000e-01 0.0000000000e+00 6.6666700000e-01 0.0000000000e+00 3.3333300000e-01 0.0000000000e+00 
1.6655318235e+08 3.3333300000e-01 0.0000000000e+00 6.6666700000e-01 0.0000000000e+00 6.6666700000e-01 0.0000000000e+00 3.3333300000e-01 0.0000000000e+00 
1.6947640294e+08 3.3333300000e-01 0.0000000000e+00 6.6666700000e-01 0.0000000000e+00 6.6666700000e-01 0.0000000000e+00 3.3333300000e-01 0.0000000000e+00 
1.7245092978e+08 3.3333300000e-01 0.0000000000e+00 6.6666700000e-01 0.0000000000e+00 6.6666700000e-01 0.0000000000e+00 3.3333300000e-01 0.0000000000e+00 
1.7547766335e+08 3.3333300000e-01 0.0000000000e+00 6.6666700000e-01 0.0000000000e+00 6.6666700000e-01 0.0000000000e+00 3.3333300000e-01 0.0000000000e+00 
1.7855751995e+08 3.3333300000e-01 0.0000000000e+00 6.6666700000e-01 0.0000000000e+00 6.6666700000e-01 0.0000000000e+00 3.3333300000e-01 0.0000000000e+00 
1.8169143196e+08 3.3333300000e-01 0.0000000000e+00 6.6666700000e-01 0.0000000000e+00 6.6666700000e-01 0.0000000000e+00 3.3333300000e-01 0.0000000000e+00 
1.8488034812e+08 3.3333300000e-01 0.0000000000e+00 6.6666700000e-01 0.0000000000e+00 6.6666700000e-01 0.0000000000e+00 3.3333300000e-01 0.0000000000e+00 
1.8812523382e+08 3.3333300000e-01 0.0000000000e+00 6.6666700000e-01 0.0000000000e+00 6.6666700000e-01 0.0000000000e+00 3.3333300000e-01 0.0000000000e+00 
1.9142707141e+08 3.3333300000e-01 0.0000000000e+00 6.6666700000e-01 0.0000000000e+00 6.6666700000e-01 0.0000000000e+00 3.3333300000e-01 0.0000000000e+00 
1.9478686044e+08 3.3333300000e-01 0.0000000000e+00 6.6666700000e-01 0.0000000000e+00 6.6666700000e-01 0.0000000000e+00 3.3333300000e-01 0.0000000000e+00 
1.9820561806e+08 3.3333300000e-01 0.0000000000e+00 6.6666700000e-01 0.0000000000e+00 6.6666700000e-01 0.0000000000e+00 3.3333300000e-01 0.0000000000e+00 
2.0168437923e+08 3.3333300000e-01 0.0000000000e+00 6.6666700000e-01 0.0000000000e+00 6.6666700000e-01 0.0000000000e+00 3.3333300000e-01 0.0000000000e+00 
2.0522419709e+08 3.3333300000e-01 0.0000000000e+00 6.6666700000e-01 0.0000000000e+00 6.6666700000e-01 0.0000000000e+00 3.3333300000e-01 0.0000000000e+00 
2.0882614327e+08 3.3333300000e-01 0.0000000000e+00 6.6666700000e-01 0.0000000000e+00 6.6666700000e-01 0.0000000000e+00 3.3333300000e-01 0.0000000000e+00 
2.1249130819e+08 3.3333300000e-01 0.0000000000e+00 6.6666700000e-01 0.0000000000e+00 6.6666700000e-01 0.0000000000e+00 3.3333300000e-01 0.0000000000e+00 
2.1622080143e+08 3.3333300000e-01 0.0000000000e+00 6.6666700000e-01 0.0000000000e+00 6.6666700000e-01 0.0000000000e+00 3.3333300000e-01 0.0000000000e+00 
2.2001575202e+08 3.3333300000e-01 0.0000000000e+00 6.6666700000e-01 0.0000000000e+00 6.6666700000e-01 0.0000000000e+00 3.3333300000e-01 0.0000000000e+00 
2.2387730884e+08 3.3333300000e-01 0.0000000000e+00 6.6666700000e-01 0.0000000000e+00 6.6666700000e-01 0.0000000000e+00 3.3333300000e-01 0.0000000000e+00 
2.2780664089e+08 3.3333300000e-01 0.0000000000e+00 6.6666700000e-01 0.0000000000e+00 6.6666700000e-01 0.0000000000e+00 3.3333300000e-01 0.0000000000e+00 
2.3180493773e+08 3.3333300000e-01 0.0000000000e+00 6.6666700000e-01 0.0000000000e+00 6.6666700000e-01 0.0000000000e+00 3.3333300000e-01 0.0000000000e+00 
2.3587340978e+08 3.3333300000e-01 0.0000000000e+00 6.6666700000e-01 0.0000000000e+00 6.6666700000e-01 0.0000000000e+00 3.3333300000e-01 0.0000000000e+00 
2.4001328870e+08 3.3333300000e-01 0.0000000000e+00 6.6666700000e-01 0.0000000000e+00 6.6666700000e-01 0.0000000000e+00 3.3333300000e-01 0.0000000000e+00 
2.4422582776e+08 3.3333300000e-01 0.0000000000e+00 6.6666700000e-01 0.0000000000e+00 6.6666700000e-01 0.0000000000e+00 3.3333300000e-01 0.0000000000e+00 
2.4851230225e+08 3.3333300000e-01 0.0000000000e+00 6.6666700000e-01 0.0000000000e+00 6.6666700000e-01 0.0000000000e+00 3.3333300000e-01 0.0000000000e+00 
2.5287400984e+08 3.3333300000e-01 0.0000000000e+00 6.6666700000e-01 0.0000000000e+00 6.6666700000e-01 0.0000000000e+00 3.3333300000e-01 0.0000000000e+00 
2.5731227095e+08 3.3333300000e-01 0.0000000000e+00 6.6666700000e-01 0.0000000000e+00 6.6666700000e-01 0.0000000000e+00 3.3333300000e-01 0.0000000000e+00 
2.6182842920e+08 3.3333300000e-01 0.0000000000e+00 6.6666700000e-01 0.0000000000e+00 6.6666700000e-01 0.0000000000e+00 3.3333300000e-01 0.0000000000e+00 
2.6642385178e+08 3.3333300000e-01 0.0000000000e+00 6.6666700000e-01 0.0000000000e+00 6.6666700000e-01 0.0000000000e+00 3.3333300000e-01 0.0000000000e+00 
2.7109992988e+08 3.3333300000e-01 0.0000000000e+00 6.6666700000e-01 0.0000000000e+00 6.6666700000e-01 0.0000000000e+00 3.3333300000e-01 0.0000000000e+00 
2.7585807911e+08 3.3333300000e-01 0.0000000000e+00 6.6666700000e-01 0.0000000000e+00 6.6666700000e-01 0.0000000000e+00 3.3333300000e-01 0.0000000000e+00 
2.8069973992e+08 3.3333300000e-01 0.0000000000e+00 6.6666700000e-01 0.0000000000e+00 6.6666700000e-01 0.0000000000e+00 3.3333300000e-01 0.0000000000e+00 
2.8562637805e+08 3.3333300000e-01 0.0000000000e+00 6.6666700000e-01 0.0000000000e+00 6.6666700000e-01 0.0000000000e+00 3.3333300000e-01 0.0000000000e+00 
2.9063948496e+08 3.3333300000e-01 0.0000000000e+00 6.6666700000e-01 0.0000000000e+00 6.6666700000e-01 0.0000000000e+00 3.3333300000e-01 0.0000000000e+00 
2.9574057829e+08 3.3333300000e-01 0.0000000000e+00 6.6666700000e-01 0.0000000000e+00 6.6666700000e-01 0.0000000000e+00 3.3333300000e-01 0.0000000000e+00 
3.0093120230e+08 3.3333300000e-01 0.0000000000e+00 6.6666700000e-01 0.0000000000e+00 6.6666700000e-01 0.0000000000e+00 3.3333300000e-01 0.0000000000e+00 
3.0621292837e+08 3.3333300000e-01 0.0000000000e+00 6.6666700000e-01 0.0000000000e+00 6.6666700000e-01 0.0000000000e+00 3.3333300000e-01 0.0000000000e+00 
3.1158735547e+08 3.3333300000e-01 0.0000000000e+00 6.6666700000e-01 0.0000000000e+00 6.6666700000e-01 0.0000000000e+00 3.3333300000e-01 0.0000000000e+00 
3.1705611062e+08 3.3333300000e-01 0.0000000000e+00 6.6666700000e-01 0.0000000000e+00 6.6666700000e-01 0.0000000000e+00 3.3333300000e-01 0.0000000000e+00 
3.2262084938e+08 3.3333300000e-01 0.0000000000e+00 6.6666700000e-01 0.0000000000e+00 6.6666700000e-01 0.0000000000e+00 3.3333300000e-01 0.0000000000e+00 
3.2828325640e+08 3.3333300000e-01 0.0000000000e+00 6.6666700000e-01 0.0000000000e+00 6.6666700000e-01 0.0000000000e+00 3.3333300000e-01 0.0000000000e+00 
3.3404504589e+08 3.3333300000e-01 0.0000000000e+00 6.6666700000e-01 0.0000000000e+00 6.6666700000e-01 0.0000000000e+00 3.3333300000e-01 0.0000000000e+00 
3.3990796211e+08 3.3333300000e-01 0.0000000000e+00 6.6666700000e-01 0.0000000000e+00 6.6666700000e-01 0.0000000000e+00 3.3333300000e-01 0.0000000000e+00 
3.4587377999e+08 3.3333300000e-01 0.0000000000e+00 6.6666700000e-01 0.0000000000e+00 6.6666700000e-01 0.0000000000e+00 3.3333300000e-01 0.0000000000e+00 
3.5194430558e+08 3.3333300000e-01 0.0000000000e+00 6.6666700000e-01 0.0000000000e+00 6.6666700000e-01 0.0000000000e+00 3.3333300000e-01 0.0000000000e+00 
3.5812137662e+08 3.3333300000e-01 0.0000000000e+00 6.6666700000e-01 0.0000000000e+00 6.6666700000e-01 0.0000000000e+00 3.3333300000e-01 0.0000000000e+00 
3.6440686314e+08 3.3333300000e-01 0.0000000000e+00 6.6666700000e-01 0.0000000000e+00 6.6666700000e-01 0.0000000000e+00 3.3333300000e-01 0.0000000000e+00 
3.7080266795e+08 3.3333300000e-01 0.0000000000e+00 6.6666700000e-01 0.0000000000e+00 6.6666700000e-01 0.0000000000e+00 3.3333300000e-01 0.0000000000e+00 
3.7731072729e+08 3.3333300000e-01 0.0000000000e+00 6.6666700000e-01 0.0000000000e+00 6.6666700000e-01 0.0000000000e+00 3.3333300000e-01 0.0000000000e+00 
3.8393301136e+08 3.3333300000e-01 0.0000000000e+00 6.6666700000e-01 0.0000000000e+00 6.6666700000e-01 0.0000000000e+00 3.3333300000e-01 0.0000000000e+00 
3.9067152495e+08 3.3333300000e-01 0.0000000000e+00 6.6666700000e-01 0.0000000000e+00 6.6666700000e-01 0.0000000000e+00 3.3333300000e-01 0.0000000000e+00 
3.9752830805e+08 3.3333300000e-01 0.0000000000e+00 6.6666700000e-01 0.0000000000e+00 6.6666700000e-01 0.0000000000e+00 3.3333300000e-01 0.0000000000e+00 
4.0450543642e+08 3.3333300000e-01 0.0000000000e+00 6.6666700000e-01 0.0000000000e+00 6.6666700000e-01 0.0000000000e+00 3.3333300000e-01 0.0000000000e+00 
4.1160502229e+08 3.3333300000e-01 0.0000000000e+00 6.6666700000e-01 0.0000000000e+00 6.6666700000e-01 0.0000000000e+00 3.3333300000e-01 0.0000000000e+00 
4.1882921494e+08 3.3333300000e-01 0.0000000000e+00 6.6666700000e-01 0.0000000000e+00 6.6666700000e-01 0.0000000000e+00 3.3333300000e-01 0.0000000000e+00 
4.2618020138e+08 3.3333300000e-01 0.0000000000e+00 6.6666700000e-01 0.0000000000e+00 6.6666700000e-01 0.0000000000e+00 3.3333300000e-01 0.0000000000e+00 
4.3366020699e+08 3.3333300000e-01 0.0000000000e+00 6.6666700000e-01 0.0000000000e+00 6.6666700000e-01 0.0000000000e+00 3.3333300000e-01 0.0000000000e+00 
4.4127149624e+08 3.3333300000e-01 0.0000000000e+00 6.6666700000e-01 0.0000000000e+00 6.6666700000e-01 0.0000000000e+00 3.3333300000e-01 0.0000000000e+00 
4.4901637331e+08 3.3333300000e-01 0.0000000000e+00 6.6666700000e-01 0.0000000000e+00 6.6666700000e-01 0.0000000000e+00 3.3333300000e-01 0.0000000000e+00 
4.5689718284e+08 3.3333300000e-01 0.0000000000e+00 6.6666700000e-01 0.0000000000e+00 6.6666700000e-01 0.0000000000e+00 3.3333300000e-01 0.0000000000e+00 
4.6491631062e+08 3.3333300000e-01 0.0000000000e+00 6.6666700000e-01 0.0000000000e+00 6.6666700000e-01 0.0000000000e+00 3.3333300000e-01 0.0000000000e+00 
4.7307618432e+08 3.3333300000e-01 0.0000000000e+00 6.6666700000e-01 0.0000000000e+00 6.6666700000e-01 0.0000000000e+00 3.3333300000e-01 0.0000000000e+00 
4.8137927419e+08 3.3333300000e-01 0.0000000000e+00 6.6666700000e-01 0.0000000000e+00 6.6666700000e-01 0.0000000000e+00 3.3333300000e-01 0.0000000000e+00 
4.8982809388e+08 3.3333300000e-01 0.0000000000e+00 6.6666700000e-01 0.0000000000e+00 6.6666700000e-01 0.0000000000e+00 3.3333300000e-01 0.0000000000e+00 
4.9842520111e+08 3.3333300000e-01 0.0000000000e+00 6.6666700000e-01 0.0000000000e+00 6.6666700000e-01 0.0000000000e+00 3.3333300000e-01 0.0000000000e+00 
5.0717319853e+08 3.3333300000e-01 0.0000000000e+00 6.6666700000e-01 0.0000000000e+00 6.6666700000e-01 0.0000000000e+00 3.3333300000e-01 0.0000000000e+00 
5.1607473446e+08 3.3333300000e-01 0.0000000000e+00 6.6666700000e-01 0.0000000000e+00 6.6666700000e-01 0.0000000000e+00 3.3333300000e-01 0.0000000000e+00 
5.2513250368e+08 3.3333300000e-01 0.0000000000e+00 6.6666700000e-01 0.0000000000e+00 6.6666700000e-01 0.0000000000e+00 3.3333300000e-01 0.0000000000e+00 
5.3434924830e+08 3.3333300000e-01 0.0000000000e+00 6.6666700000e-01 0.0000000000e+00 6.6666700000e-01 0.0000000000e+00 3.3333300000e-01 0.0000000000e+00 
5.4372775852e+08 3.3333300000e-01 0.0000000000e+00 6.6666700000e-01 0.0000000000e+00 6.6666700000e-01 0.0000000000e+00 3.3333300000e-01 0.0000000000e+00 
5.5327087356e+08 3.3333300000e-01 0.0000000000e+00 6.6666700000e-01 0.0000000000e+00 6.6666700000e-01 0.0000000000e+00 3.3333300000e-01 0.0000000000e+00 
5.6298148242e+08 3.3333300000e-01 0.0000000000e+00 6.6666700000e-01 0.0000000000e+00 6.6666700000e-01 0.0000000000e+00 3.3333300000e-01 0.0000000000e+00 
5.7286252485e+08 3.3333300000e-01 0.0000000000e+00 6.6666700000e-01 0.0000000000e+00 6.6666700000e-01 0.0000000000e+00 3.3333300000e-01 0.0000000000e+00 
5.8291699215e+08 3.3333300000e-01 0.0000000000e+00 6.6666700000e-01 0.0000000000e+00 6.6666700000e-01 0.0000000000e+00 3.3333300000e-01 0.0000000000e+00 
5.9314792818e+08 3.3333300000e-01 0.0000000000e+00 6.6666700000e-01 0.0000000000e+00 6.6666700000e-01 0.0000000000e+00 3.3333300000e-01 0.0000000000e+00 
6.0355843016e+08 3.3333300000e-01 0.0000000000e+00 6.6666700000e-01 0.0000000000e+00 6.6666700000e-01 0.0000000000e+00 3.3333300000e-01 0.0000000000e+00 
6.1415164973e+08 3.3333300000e-01 0.0000000000e+00 6.6666700000e-01 0.0000000000e+00 6.6666700000e-01 0.0000000000e+00 3.3333300000e-01 0.0000000000e+00 
6.2493079379e+08 3.3333300000e-01 0.0000000000e+00 6.6666700000e-01 0.0000000000e+00 6.6666700000e-01 0.0000000000e+00 3.3333300000e-01 0.0000000000e+00 
6.3589912557e+08 3.3333300000e-01 0.0000000000e+00 6.6666700000e-01 0.0000000000e+00 6.6666700000e-01 0.0000000000e+00 3.3333300000e-01 0.0000000000e+00 
6.4705996555e+08 3.3333300000e-01 0.0000000000e+00 6.6666700000e-01 0.0000000000e+00 6.6666700000e-01 0.0000000000e+00 3.3333300000e-01 0.0000000000e+00 
6.5841669250e+08 3.3333300000e-01 0.0000000000e+00 6.6666700000e-01 0.0000000000e+00 6.6666700000e-01 0.0000000000e+00 3.3333300000e-01 0.0000000000e+00 
6.6997274447e+08 3.3333300000e-01 0.0000000000e+00 6.6666700000e-01 0.0000000000e+00 6.6666700000e-01 0.0000000000e+00 3.3333300000e-01 0.0000000000e+00 
6.8173161988e+08 3.3333300000e-01 0.0000000000e+00 6.6666700000e-01 0.0000000000e+00 6.6666700000e-01 0.0000000000e+00 3.3333300000e-01 0.0000000000e+00 
6.9369687854e+08 3.3333300000e-01 0.0000000000e+00 6.6666700000e-01 0.0000000000e+00 6.6666700000e-01 0.0000000000e+00 3.3333300000e-01 0.0000000000e+00 
7.0587214273e+08 3.3333300000e-01 0.0000000000e+00 6.6666700000e-01 0.0000000000e+00 6.6666700000e-01 0.0000000000e+00 3.3333300000e-01 0.0000000000e+00 
7.1826109833e+08 3.3333300000e-01 0.0000000000e+00 6.6666700000e-01 0.0000000000e+00 6.6666700000e-01 0.0000000000e+00 3.3333300000e-01 0.0000000000e+00 
7.3086749589e+08 3.3333300000e-01 0.0000000000e+00 6.6666700000e-01 0.0000000000e+00 6.6666700000e-01 0.0000000000e+00 3.3333300000e-01 0.0000000000e+00 
7.4369515178e+08 3.3333300000e-01 0.0000000000e+00 6.6666700000e-01 0.0000000000e+00 6.6666700000e-01 0.0000000000e+00 3.3333300000e-01 0.0000000000e+00 
7.5674794939e+08 3.3333300000e-01 0.0000000000e+00 6.6666700000e-01 0.0000000000e+00 6.6666700000e-01 0.0000000000e+00 3.3333300000e-01 0.0000000000e+00 
7.7002984022e+08 3.3333300000e-01 0.0000000000e+00 6.6666700000e-01 0.0000000000e+00 6.6666700000e-01 0.0000000000e+00 3.3333300000e-01 0.0000000000e+00 
7.8354484517e+08 3.3333300000e-01 0.0000000000e+00 6.6666700000e-01 0.0000000000e+00 6.6666700000e-01 0.0000000000e+00 3.3333300000e-01 0.0000000000e+00 
7.9729705567e+08 3.3333300000e-01 0.0000000000e+00 6.6666700000e-01 0.0000000000e+00 6.6666700000e-01 0.0000000000e+00 3.3333300000e-01 0.0000000000e+00 
8.1129063499e+08 3.3333300000e-01 0.0000000000e+00 6.6666700000e-01 0.0000000000e+00 6.6666700000e-01 0.0000000000e+00 3.3333300000e-01 0.0000000000e+00 
8.2552981946e+08 3.3333300000e-01 0.0000000000e+00 6.6666700000e-01 0.0000000000e+00 6.6666700000e-01 0.0000000000e+00 3.3333300000e-01 0.0000000000e+00 
8.4001891977e+08 3.3333300000e-01 0.0000000000e+00 6.6666700000e-01 0.0000000000e+00 6.6666700000e-01 0.0000000000e+00 3.3333300000e-01 0.0000000000e+00 
8.5476232224e+08 3.3333300000e-01 0.0000000000e+00 6.6666700000e-01 0.0000000000e+00 6.6666700000e-01 0.0000000000e+00 3.3333300000e-01 0.0000000000e+00 
8.6976449022e+08 3.3333300000e-01 0.0000000000e+00 6.6666700000e-01 0.0000000000e+00 6.6666700000e-01 0.0000000000e+00 3.3333300000e-01 0.0000000000e+00 
8.8502996536e+08 3.3333300000e-01 0.0000000000e+00 6.6666700000e-01 0.0000000000e+00 6.6666700000e-01 0.0000000000e+00 3.3333300000e-01 0.0000000000e+00 
9.0056336905e+08 3.3333300000e-01 0.0000000000e+00 6.6666700000e-01 0.0000000000e+00 6.6666700000e-01 0.0000000000e+00 3.3333300000e-01 0.0000000000e+00 
9.1636940376e+08 3.3333300000e-01 0.0000000000e+00 6.6666700000e-01 0.0000000000e+00 6.6666700000e-01 0.0000000000e+00 3.3333300000e-01 0.0000000000e+00 
9.3245285453e+08 3.3333300000e-01 0.0000000000e+00 6.6666700000e-01 0.0000000000e+00 6.6666700000e-01 0.0000000000e+00 3.3333300000e-01 0.0000000000e+00 
9.4881859035e+08 3.3333300000e-01 0.0000000000e+00 6.6666700000e-01 0.0000000000e+00 6.6666700000e-01 0.0000000000e+00 3.3333300000e-01 0.0000000000e+00 
9.6547156569e+08 3.3333300000e-01 0.0000000000e+00 6.6666700000e-01 0.0000000000e+00 6.6666700000e-01 0.0000000000e+00 3.3333300000e-01 0.0000000000e+00 
9.8241682197e+08 3.3333300000e-01 0.0000000000e+00 6.6666700000e-01 0.0000000000e+00 6.6666700000e-01 0.0000000000e+00 3.3333300000e-01 0.0000000000e+00 
9.9965948908e+08 3.3333300000e-01 0.0000000000e+00 6.6666700000e-01 0.0000000000e+00 6.6666700000e-01 0.0000000000e+00 3.3333300000e-01 0.0000000000e+00 
1.0172047870e+09 3.3333300000e-01 0.0000000000e+00 6.6666700000e-01 0.0000000000e+00 6.6666700000e-01 0.0000000000e+00 3.3333300000e-01 0.0000000000e+00 
1.0350580272e+09 3.3333300000e-01 0.0000000000e+00 6.6666700000e-01 0.0000000000e+00 6.6666700000e-01 0.0000000000e+00 3.3333300000e-01 0.0000000000e+00 
1.0532246146e+09 3.3333300000e-01 0.0000000000e+00 6.6666700000e-01 0.0000000000e+00 6.6666700000e-01 0.0000000000e+00 3.3333300000e-01 0.0000000000e+00 
1.0717100487e+09 3.3333300000e-01 0.0000000000e+00 6.6666700000e-01 0.0000000000e+00 6.6666700000e-01 0.0000000000e+00 3.3333300000e-01 0.0000000000e+00 
1.0905199257e+09 3.3333300000e-01 0.0000000000e+00 6.6666700000e-01 0.0000000000e+00 6.6666700000e-01 0.0000000000e+00 3.3333300000e-01 0.0000000000e+00 
1.1096599401e+09 3.3333300000e-01 0.0000000000e+00 6.6666700000e-01 0.0000000000e+00 6.6666700000e-01 0.0000000000e+00 3.3333300000e-01 0.0000000000e+00 
1.1291358860e+09 3.3333300000e-01 0.0000000000e+00 6.6666700000e-01 0.0000000000e+00 6.6666700000e-01 0.0000000000e+00 3.3333300000e-01 0.0000000000e+00 
1.1489536597e+09 3.3333300000e-01 0.0000000000e+00 6.6666700000e-01 0.0000000000e+00 6.6666700000e-01 0.0000000000e+00 3.3333300000e-01 0.0000000000e+00 
1.1691192605e+09 3.3333300000e-01 0.0000000000e+00 6.6666700000e-01 0.0000000000e+00 6.6666700000e-01 0.0000000000e+00 3.3333300000e-01 0.0000000000e+00 
1.1896387934e+09 3.3333300000e-01 0.0000000000e+00 6.6666700000e-01 0.0000000000e+00 6.6666700000e-01 0.0000000000e+00 3.3333300000e-01 0.0000000000e+00 
1.2105184701e+09 3.3333300000e-01 0.0000000000e+00 6.6666700000e-01 0.0000000000e+00 6.6666700000e-01 0.0000000000e+00 3.3333300000e-01 0.0000000000e+00 
1.2317646119e+09 3.3333300000e-01 0.0000000000e+00 6.6666700000e-01 0.0000000000e+00 6.6666700000e-01 0.0000000000e+00 3.3333300000e-01 0.0000000000e+00 
1.2533836504e+09 3.3333300000e-01 0.0000000000e+00 6.6666700000e-01 0.0000000000e+00 6.6666700000e-01 0.0000000000e+00 3.3333300000e-01 0.0000000000e+00 
1.2753821307e+09 3.3333300000e-01 0.0000000000e+00 6.6666700000e-01 0.0000000000e+00 6.6666700000e-01 0.0000000000e+00 3.3333300000e-01 0.0000000000e+00 
1.2977667123e+09 3.3333300000e-01 0.0000000000e+00 6.6666700000e-01 0.0000000000e+00 6.6666700000e-01 0.0000000000e+00 3.3333300000e-01 0.0000000000e+00 
1.3205441718e+09 3.3333300000e-01 0.0000000000e+00 6.6666700000e-01 0.0000000000e+00 6.6666700000e-01 0.0000000000e+00 3.3333300000e-01 0.0000000000e+00 
1.3437214048e+09 3.3333300000e-01 0.0000000000e+00 6.6666700000e-01 0.0000000000e+00 6.6666700000e-01 0.0000000000e+00 3.3333300000e-01 0.0000000000e+00 
1.3673054278e+09 3.3333300000e-01 0.0000000000e+00 6.6666700000e-01 0.0000000000e+00 6.6666700000e-01 0.0000000000e+00 3.3333300000e-01 0.0000000000e+00 
1.3913033804e+09 3.3333300000e-01 0.0000000000e+00 6.6666700000e-01 0.0000000000e+00 6.6666700000e-01 0.0000000000e+00 3.3333300000e-01 0.0000000000e+00 
1.4157225277e+09 3.3333300000e-01 0.0000000000e+00 6.6666700000e-01 0.0000000000e+00 6.6666700000e-01 0.0000000000e+00 3.3333300000e-01 0.0000000000e+00 
1.4405702621e+09 3.3333300000e-01 0.0000000000e+00 6.6666700000e-01 0.0000000000e+00 6.6666700000e-01 0.0000000000e+00 3.3333300000e-01 0.0000000000e+00 
1.4658541059e+09 3.3333300000e-01 0.0000000000e+00 6.6666700000e-01 0.0000000000e+00 6.6666700000e-01 0.0000000000e+00 3.3333300000e-01 0.0000000000e+00 
1.4915817134e+09 3.3333300000e-01 0.0000000000e+00 6.6666700000e-01 0.0000000000e+00 6.6666700000e-01 0.0000000000e+00 3.3333300000e-01 0.0000000000e+00 
1.5177608732e+09 3.3333300000e-01 0.0000000000e+00 6.6666700000e-01 0.0000000000e+00 6.6666700000e-01 0.0000000000e+00 3.3333300000e-01 0.0000000000e+00 
1.5443995106e+09 3.3333300000e-01 0.0000000000e+00 6.6666700000e-01 0.0000000000e+00 6.6666700000e-01 0.0000000000e+00 3.3333300000e-01 0.0000000000e+00 
1.5715056900e+09 3.3333300000e-01 0.0000000000e+00 6.6666700000e-01 0.0000000000e+00 6.6666700000e-01 0.0000000000e+00 3.3333300000e-01 0.0000000000e+00 
1.5990876174e+09 3.3333300000e-01 0.0000000000e+00 6.6666700000e-01 0.0000000000e+00 6.6666700000e-01 0.0000000000e+00 3.3333300000e-01 0.0000000000e+00 
1.6271536428e+09 3.3333300000e-01 0.0000000000e+00 6.6666700000e-01 0.0000000000e+00 6.6666700000e-01 0.0000000000e+00 3.3333300000e-01 0.0000000000e+00 
1.6557122628e+09 3.3333300000e-01 0.0000000000e+00 6.6666700000e-01 0.0000000000e+00 6.6666700000e-01 0.0000000000e+00 3.3333300000e-01 0.0000000000e+00 
1.6847721228e+09 3.3333300000e-01 0.0000000000e+00 6.6666700000e-01 0.0000000000e+00 6.6666700000e-01 0.0000000000e+00 3.3333300000e-01 0.0000000000e+00 
1.7143420205e+09 3.3333300000e-01 0.0000000000e+00 6.6666700000e-01 0.0000000000e+00 6.6666700000e-01 0.0000000000e+00 3.3333300000e-01 0.0000000000e+00 
1.7444309075e+09 3.3333300000e-01 0.0000000000e+00 6.6666700000e-01 0.0000000000e+00 6.6666700000e-01 0.0000000000e+00 3.3333300000e-01 0.0000000000e+00 
1.7750478929e+09 3.3333300000e-01 0.0000000000e+00 6.6666700000e-01 0.0000000000e+00 6.6666700000e-01 0.0000000000e+00 3.3333300000e-01 0.0000000000e+00 
1.8062022454e+09 3.3333300000e-01 0.0000000000e+00 6.6666700000e-01 0.0000000000e+00 6.6666700000e-01 0.0000000000e+00 3.3333300000e-01 0.0000000000e+00 
1.8379033964e+09 3.3333300000e-01 0.0000000000e+00 6.6666700000e-01 0.0000000000e+00 6.6666700000e-01 0.0000000000e+00 3.3333300000e-01 0.0000000000e+00 
1.8701609431e+09 3.3333300000e-01 0.0000000000e+00 6.6666700000e-01 0.0000000000e+00 6.6666700000e-01 0.0000000000e+00 3.3333300000e-01 0.0000000000e+00 
1.9029846507e+09 3.3333300000e-01 0.0000000000e+00 6.6666700000e-01 0.0000000000e+00 6.6666700000e-01 0.0000000000e+00 3.3333300000e-01 0.0000000000e+00 
1.9363844563e+09 3.3333300000e-01 0.0000000000e+00 6.6666700000e-01 0.0000000000e+00 6.6666700000e-01 0.0000000000e+00 3.3333300000e-01 0.0000000000e+00 
1.9703704711e+09 3.3333300000e-01 0.0000000000e+00 6.6666700000e-01 0.0000000000e+00 6.6666700000e-01 0.0000000000e+00 3.3333300000e-01 0.0000000000e+00 
2.0049529837e+09 3.3333300000e-01 0.0000000000e+00 6.6666700000e-01 0.0000000000e+00 6.6666700000e-01 0.0000000000e+00 3.3333300000e-01 0.0000000000e+00 
2.0401424635e+09 3.3333300000e-01 0.0000000000e+00 6.6666700000e-01 0.0000000000e+00 6.6666700000e-01 0.0000000000e+00 3.3333300000e-01 0.0000000000e+00 
2.0759495635e+09 3.3333300000e-01 0.0000000000e+00 6.6666700000e-01 0.0000000000e+00 6.6666700000e-01 0.0000000000e+00 3.3333300000e-01 0.0000000000e+00 
2.1123851237e+09 3.3333300000e-01 0.0000000000e+00 6.6666700000e-01 0.0000000000e+00 6.6666700000e-01 0.0000000000e+00 3.3333300000e-01 0.0000000000e+00 
2.1494601744e+09 3.3333300000e-01 0.0000000000e+00 6.6666700000e-01 0.0000000000e+00 6.6666700000e-01 0.0000000000e+00 3.3333300000e-01 0.0000000000e+00 
2.1871859395e+09 3.3333300000e-01 0.0000000000e+00 6.6666700000e-01 0.0000000000e+00 6.6666700000e-01 0.0000000000e+00 3.3333300000e-01 0.0000000000e+00 
2.2255738399e+09 3.3333300000e-01 0.0000000000e+00 6.6666700000e-01 0.0000000000e+00 6.6666700000e-01 0.0000000000e+00 3.3333300000e-01 0.0000000000e+00 
2.2646354968e+09 3.3333300000e-01 0.0000000000e+00 6.6666700000e-01 0.0000000000e+00 6.6666700000e-01 0.0000000000e+00 3.3333300000e-01 0.0000000000e+00 
2.3043827356e+09 3.3333300000e-01 0.0000000000e+00 6.6666700000e-01 0.0000000000e+00 6.6666700000e-01 0.0000000000e+00 3.3333300000e-01 0.0000000000e+00 
2.3448275891e+09 3.3333300000e-01 0.0000000000e+00 6.6666700000e-01 0.0000000000e+00 6.6666700000e-01 0.0000000000e+00 3.3333300000e-01 0.0000000000e+00 
2.3859823013e+09 3.3333300000e-01 0.0000000000e+00 6.6666700000e-01 0.0000000000e+00 6.6666700000e-01 0.0000000000e+00 3.3333300000e-01 0.0000000000e+00 
2.4278593311e+09 3.3333300000e-01 0.0000000000e+00 6.6666700000e-01 0.0000000000e+00 6.6666700000e-01 0.0000000000e+00 3.3333300000e-01 0.0000000000e+00 
2.4704713562e+09 3.3333300000e-01 0.0000000000e+00 6.6666700000e-01 0.0000000000e+00 6.6666700000e-01 0.0000000000e+00 3.3333300000e-01 0.0000000000e+00 
2.5138312766e+09 3.3333300000e-01 0.0000000000e+00 6.6666700000e-01 0.0000000000e+00 6.6666700000e-01 0.0000000000e+00 3.3333300000e-01 0.0000000000e+00 
2.5579522189e+09 3.3333300000e-01 0.0000000000e+00 6.6666700000e-01 0.0000000000e+00 6.6666700000e-01 0.0000000000e+00 3.3333300000e-01 0.0000000000e+00 
2.6028475400e+09 3.3333300000e-01 0.0000000000e+00 6.6666700000e-01 0.0000000000e+00 6.6666700000e-01 0.0000000000e+00 3.3333300000e-01 0.0000000000e+00 
2.6485308311e+09 3.3333300000e-01 0.0000000000e+00 6.6666700000e-01 0.0000000000e+00 6.6666700000e-01 0.0000000000e+00 3.3333300000e-01 0.0000000000e+00 
2.6950159222e+09 3.3333300000e-01 0.0000000000e+00 6.6666700000e-01 0.0000000000e+00 6.6666700000e-01 0.0000000000e+00 3.3333300000e-01 0.0000000000e+00 
2.7423168859e+09 3.3333300000e-01 0.0000000000e+00 6.6666700000e-01 0.0000000000e+00 6.6666700000e-01 0.0000000000e+00 3.3333300000e-01 0.0000000000e+00 
2.7904480418e+09 3.3333300000e-01 0.0000000000e+00 6.6666700000e-01 0.0000000000e+00 6.6666700000e-01 0.0000000000e+00 3.3333300000e-01 0.0000000000e+00 
2.8394239608e+09 3.3333300000e-01 0.0000000000e+00 6.6666700000e-01 0.0000000000e+00 6.6666700000e-01 0.0000000000e+00 3.3333300000e-01 0.0000000000e+00 
2.8892594695e+09 3.3333300000e-01 0.0000000000e+00 6.6666700000e-01 0.0000000000e+00 6.6666700000e-01 0.0000000000e+00 3.3333300000e-01 0.0000000000e+00 
2.9399696550e+09 3.3333300000e-01 0.0000000000e+00 6.6666700000e-01 0.0000000000e+00 6.6666700000e-01 0.0000000000e+00 3.3333300000e-01 0.0000000000e+00 
2.9915698689e+09 3.3333300000e-01 0.0000000000e+00 6.6666700000e-01 0.0000000000e+00 6.6666700000e-01 0.0000000000e+00 3.3333300000e-01 0.0000000000e+00 
3.0440757322e+09 3.3333300000e-01 0.0000000000e+00 6.6666700000e-01 0.0000000000e+00 6.6666700000e-01 0.0000000000e+00 3.3333300000e-01 0.0000000000e+00 
3.0975031404e+09 3.3333300000e-01 0.0000000000e+00 6.6666700000e-01 0.0000000000e+00 6.6666700000e-01 0.0000000000e+00 3.3333300000e-01 0.0000000000e+00 
3.1518682676e+09 3.3333300000e-01 0.0000000000e+00 6.6666700000e-01 0.0000000000e+00 6.6666700000e-01 0.0000000000e+00 3.3333300000e-01 0.0000000000e+00 
3.2071875722e+09 3.3333300000e-01 0.0000000000e+00 6.6666700000e-01 0.0000000000e+00 6.6666700000e-01 0.0000000000e+00 3.3333300000e-01 0.0000000000e+00 
3.2634778010e+09 3.3333300000e-01 0.0000000000e+00 6.6666700000e-01 0.0000000000e+00 6.6666700000e-01 0.0000000000e+00 3.3333300000e-01 0.0000000000e+00 
3.3207559950e+09 3.3333300000e-01 0.0000000000e+00 6.6666700000e-01 0.0000000000e+00 6.6666700000e-01 0.0000000000e+00 3.3333300000e-01 0.0000000000e+00 
3.3790394944e+09 3.3333300000e-01 0.0000000000e+00 6.6666700000e-01 0.0000000000e+00 6.6666700000e-01 0.0000000000e+00 3.3333300000e-01 0.0000000000e+00 
3.4383459434e+09 3.3333300000e-01 0.0000000000e+00 6.6666700000e-01 0.0000000000e+00 6.6666700000e-01 0.0000000000e+00 3.3333300000e-01 0.0000000000e+00 
3.4986932962e+09 3.3333300000e-01 0.0000000000e+00 6.6666700000e-01 0.0000000000e+00 6.6666700000e-01 0.0000000000e+00 3.3333300000e-01 0.0000000000e+00 
3.5600998219e+09 3.3333300000e-01 0.0000000000e+00 6.6666700000e-01 0.0000000000e+00 6.6666700000e-01 0.0000000000e+00 3.3333300000e-01 0.0000000000e+00 
3.6225841104e+09 3.3333300000e-01 0.0000000000e+00 6.6666700000e-01 0.0000000000e+00 6.6666700000e-01 0.0000000000e+00 3.3333300000e-01 0.0000000000e+00 
3.6861650778e+09 3.3333300000e-01 0.0000000000e+00 6.6666700000e-01 0.0000000000e+00 6.6666700000e-01 0.0000000000e+00 3.3333300000e-01 0.0000000000e+00 
3.7508619722e+09 3.3333300000e-01 0.0000000000e+00 6.6666700000e-01 0.0000000000e+00 6.6666700000e-01 0.0000000000e+00 3.3333300000e-01 0.0000000000e+00 
3.8166943795e+09 3.3333300000e-01 0.0000000000e+00 6.6666700000e-01 0.0000000000e+00 6.6666700000e-01 0.0000000000e+00 3.3333300000e-01 0.0000000000e+00 
3.8836822295e+09 3.3333300000e-01 0.0000000000e+00 6.6666700000e-01 0.0000000000e+00 6.6666700000e-01 0.0000000000e+00 3.3333300000e-01 0.0000000000e+00 
3.9518458016e+09 3.3333300000e-01 0.0000000000e+00 6.6666700000e-01 0.0000000000e+00 6.6666700000e-01 0.0000000000e+00 3.3333300000e-01 0.0000000000e+00 
4.0212057313e+09 3.3333300000e-01 0.0000000000e+00 6.6666700000e-01 0.0000000000e+00 6.6666700000e-01 0.0000000000e+00 3.3333300000e-01 0.0000000000e+00 
4.0917830161e+09 3.3333300000e-01 0.0000000000e+00 6.6666700000e-01 0.0000000000e+00 6.6666700000e-01 0.0000000000e+00 3.3333300000e-01 0.0000000000e+00 
4.1635990222e+09 3.3333300000e-01 0.0000000000e+00 6.6666700000e-01 0.0000000000e+00 6.6666700000e-01 0.0000000000e+00 3.3333300000e-01 0.0000000000e+00 
4.2366754907e+09 3.3333300000e-01 0.0000000000e+00 6.6666700000e-01 0.0000000000e+00 6.6666700000e-01 0.0000000000e+00 3.3333300000e-01 0.0000000000e+00 
4.3110345443e+09 3.3333300000e-01 0.0000000000e+00 6.6666700000e-01 0.0000000000e+00 6.6666700000e-01 0.0000000000e+00 3.3333300000e-01 0.0000000000e+00 
4.3866986941e+09 3.3333300000e-01 0.0000000000e+00 6.6666700000e-01 0.0000000000e+00 6.6666700000e-01 0.0000000000e+00 3.3333300000e-01 0.0000000000e+00 
4.4636908462e+09 3.3333300000e-01 0.0000000000e+00 6.6666700000e-01 0.0000000000e+00 6.6666700000e-01 0.0000000000e+00 3.3333300000e-01 0.0000000000e+00 
4.5420343086e+09 3.3333300000e-01 0.0000000000e+00 6.6666700000e-01 0.0000000000e+00 6.6666700000e-01 0.0000000000e+00 3.3333300000e-01 0.0000000000e+00 
4.6217527986e+09 3.3333300000e-01 0.0000000000e+00 6.6666700000e-01 0.0000000000e+00 6.6666700000e-01 0.0000000000e+00 3.3333300000e-01 0.0000000000e+00 
4.7028704497e+09 3.3333300000e-01 0.0000000000e+00 6.6666700000e-01 0.0000000000e+00 6.6666700000e-01 0.0000000000e+00 3.3333300000e-01 0.0000000000e+00 
4.7854118190e+09 3.3333300000e-01 0.0000000000e+00 6.6666700000e-01 0.0000000000e+00 6.6666700000e-01 0.0000000000e+00 3.3333300000e-01 0.0000000000e+00 
4.8694018945e+09 3.3333300000e-01 0.0000000000e+00 6.6666700000e-01 0.0000000000e+00 6.6666700000e-01 0.0000000000e+00 3.3333300000e-01 0.0000000000e+00 
4.9548661028e+09 3.3333300000e-01 0.0000000000e+00 6.6666700000e-01 0.0000000000e+00 6.6666700000e-01 0.0000000000e+00 3.3333300000e-01 0.0000000000e+00 
5.0418303169e+09 3.3333300000e-01 0.0000000000e+00 6.6666700000e-01 0.0000000000e+00 6.6666700000e-01 0.0000000000e+00 3.3333300000e-01 0.0000000000e+00 
5.1303208637e+09 3.3333300000e-01 0.0000000000e+00 6.6666700000e-01 0.0000000000e+00 6.6666700000e-01 0.0000000000e+00 3.3333300000e-01 0.0000000000e+00 
5.2203645324e+09 3.3333300000e-01 0.0000000000e+00 6.6666700000e-01 0.0000000000e+00 6.6666700000e-01 0.0000000000e+00 3.3333300000e-01 0.0000000000e+00 
5.3119885823e+09 3.3333300000e-01 0.0000000000e+00 6.6666700000e-01 0.0000000000e+00 6.6666700000e-01 0.0000000000e+00 3.3333300000e-01 0.0000000000e+00 
5.4052207510e+09 3.3333300000e-01 0.0000000000e+00 6.6666700000e-01 0.0000000000e+00 6.6666700000e-01 0.0000000000e+00 3.3333300000e-01 0.0000000000e+00 
5.5000892630e+09 3.3333300000e-01 0.0000000000e+00 6.6666700000e-01 0.0000000000e+00 6.6666700000e-01 0.0000000000e+00 3.3333300000e-01 0.0000000000e+00 
5.5966228383e+09 3.3333300000e-01 0.0000000000e+00 6.6666700000e-01 0.0000000000e+00 6.6666700000e-01 0.0000000000e+00 3.3333300000e-01 0.0000000000e+00 
5.6948507009e+09 3.3333300000e-01 0.0000000000e+00 6.6666700000e-01 0.0000000000e+00 6.6666700000e-01 0.0000000000e+00 3.3333300000e-01 0.0000000000e+00 
5.7948025877e+09 3.3333300000e-01 0.0000000000e+00 6.6666700000e-01 0.0000000000e+00 6.6666700000e-01 0.0000000000e+00 3.3333300000e-01 0.0000000000e+00 
5.8965087574e+09 3.3333300000e-01 0.0000000000e+00 6.6666700000e-01 0.0000000000e+00 6.6666700000e-01 0.0000000000e+00 3.3333300000e-01 0.0000000000e+00 
6.0000000000e+09 3.3333300000e-01 0.0000000000e+00 6.6666700000e-01 0.0000000000e+00 6.6666700000e-01 0.0000000000e+00 3.3333300000e-01 0.0000000000e+00 
