! Ideal Series 50 Ohm || 1 pF  S2P
# HZ RI RI R 50
1.0000000000e+06 3.3333300000e-01 -7.0000000000e-05 6.6666700000e-01 7.0000000000e-05 6.6666700000e-01 7.0000000000e-05 3.3333300000e-01 -7.0000000000e-05 
1.0175512743e+06 3.3333300000e-01 -7.1000000000e-05 6.6666700000e-01 7.1000000000e-05 6.6666700000e-01 7.1000000000e-05 3.3333300000e-01 -7.1000000000e-05 
1.0354105958e+06 3.3333300000e-01 -7.2000000000e-05 6.6666700000e-01 7.2000000000e-05 6.6666700000e-01 7.2000000000e-05 3.3333300000e-01 -7.2000000000e-05 
1.0535833712e+06 3.3333300000e-01 -7.4000000000e-05 6.6666700000e-01 7.4000000000e-05 6.6666700000e-01 7.4000000000e-05 3.3333300000e-01 -7.4000000000e-05 
1.0720751020e+06 3.3333300000e-01 -7.5000000000e-05 6.6666700000e-01 7.5000000000e-05 6.6666700000e-01 7.5000000000e-05 3.3333300000e-01 -7.5000000000e-05 
1.0908913861e+06 3.3333300000e-01 -7.6000000000e-05 6.6666700000e-01 7.6000000000e-05 6.6666700000e-01 7.6000000000e-05 3.3333300000e-01 -7.6000000000e-05 
1.1100379201e+06 3.3333300000e-01 -7.7000000000e-05 6.6666700000e-01 7.7000000000e-05 6.6666700000e-01 7.7000000000e-05 3.3333300000e-01 -7.7000000000e-05 
1.1295205001e+06 3.3333300000e-01 -7.9000000000e-05 6.6666700000e-01 7.9000000000e-05 6.6666700000e-01 7.9000000000e-05 3.3333300000e-01 -7.9000000000e-05 
1.1493450242e+06 3.3333300000e-01 -8.0000000000e-05 6.6666700000e-01 8.0000000000e-05 6.6666700000e-01 8.0000000000e-05 3.3333300000e-01 -8.0000000000e-05 
1.1695174940e+06 3.3333300000e-01 -8.2000000000e-05 6.6666700000e-01 8.2000000000e-05 6.6666700000e-01 8.2000000000e-05 3.3333300000e-01 -8.2000000000e-05 
1.1900440163e+06 3.3333300000e-01 -8.3000000000e-05 6.6666700000e-01 8.3000000000e-05 6.6666700000e-01 8.3000000000e-05 3.3333300000e-01 -8.3000000000e-05 
1.2109308053e+06 3.3333300000e-01 -8.5000000000e-05 6.6666700000e-01 8.5000000000e-05 6.6666700000e-01 8.5000000000e-05 3.3333300000e-01 -8.5000000000e-05 
1.2321841840e+06 3.3333300000e-01 -8.6000000000e-05 6.6666700000e-01 8.6000000000e-05 6.6666700000e-01 8.6000000000e-05 3.3333300000e-01 -8.6000000000e-05 
1.2538105866e+06 3.3333300000e-01 -8.8000000000e-05 6.6666700000e-01 8.8000000000e-05 6.6666700000e-01 8.8000000000e-05 3.3333300000e-01 -8.8000000000e-05 
1.2758165602e+06 3.3333300000e-01 -8.9000000000e-05 6.6666700000e-01 8.9000000000e-05 6.6666700000e-01 8.9000000000e-05 3.3333300000e-01 -8.9000000000e-05 
1.2982087666e+06 3.3333300000e-01 -9.1000000000e-05 6.6666700000e-01 9.1000000000e-05 6.6666700000e-01 9.1000000000e-05 3.3333300000e-01 -9.1000000000e-05 
1.3209939847e+06 3.3333300000e-01 -9.2000000000e-05 6.6666700000e-01 9.2000000000e-05 6.6666700000e-01 9.2000000000e-05 3.3333300000e-01 -9.2000000000e-05 
1.3441791125e+06 3.3333300000e-01 -9.4000000000e-05 6.6666700000e-01 9.4000000000e-05 6.6666700000e-01 9.4000000000e-05 3.3333300000e-01 -9.4000000000e-05 
1.3677711688e+06 3.3333300000e-01 -9.5000000000e-05 6.6666700000e-01 9.5000000000e-05 6.6666700000e-01 9.5000000000e-05 3.3333300000e-01 -9.5000000000e-05 
1.3917772958e+06 3.3333300000e-01 -9.7000000000e-05 6.6666700000e-01 9.7000000000e-05 6.6666700000e-01 9.7000000000e-05 3.3333300000e-01 -9.7000000000e-05 
1.4162047608e+06 3.3333300000e-01 -9.9000000000e-05 6.6666700000e-01 9.9000000000e-05 6.6666700000e-01 9.9000000000e-05 3.3333300000e-01 -9.9000000000e-05 
1.4410609591e+06 3.3333300000e-01 -1.0100000000e-04 6.6666700000e-01 1.0100000000e-04 6.6666700000e-01 1.0100000000e-04 3.3333300000e-01 -1.0100000000e-04 
1.4663534152e+06 3.3333300000e-01 -1.0200000000e-04 6.6666700000e-01 1.0200000000e-04 6.6666700000e-01 1.0200000000e-04 3.3333300000e-01 -1.0200000000e-04 
1.4920897862e+06 3.3333300000e-01 -1.0400000000e-04 6.6666700000e-01 1.0400000000e-04 6.6666700000e-01 1.0400000000e-04 3.3333300000e-01 -1.0400000000e-04 
1.5182778634e+06 3.3333300000e-01 -1.0600000000e-04 6.6666700000e-01 1.0600000000e-04 6.6666700000e-01 1.0600000000e-04 3.3333300000e-01 -1.0600000000e-04 
1.5449255746e+06 3.3333300000e-01 -1.0800000000e-04 6.6666700000e-01 1.0800000000e-04 6.6666700000e-01 1.0800000000e-04 3.3333300000e-01 -1.0800000000e-04 
1.5720409871e+06 3.3333300000e-01 -1.1000000000e-04 6.6666700000e-01 1.1000000000e-04 6.6666700000e-01 1.1000000000e-04 3.3333300000e-01 -1.1000000000e-04 
1.5996323097e+06 3.3333300000e-01 -1.1200000000e-04 6.6666700000e-01 1.1200000000e-04 6.6666700000e-01 1.1200000000e-04 3.3333300000e-01 -1.1200000000e-04 
1.6277078952e+06 3.3333300000e-01 -1.1400000000e-04 6.6666700000e-01 1.1400000000e-04 6.6666700000e-01 1.1400000000e-04 3.3333300000e-01 -1.1400000000e-04 
1.6562762429e+06 3.3333300000e-01 -1.1600000000e-04 6.6666700000e-01 1.1600000000e-04 6.6666700000e-01 1.1600000000e-04 3.3333300000e-01 -1.1600000000e-04 
1.6853460016e+06 3.3333300000e-01 -1.1800000000e-04 6.6666700000e-01 1.1800000000e-04 6.6666700000e-01 1.1800000000e-04 3.3333300000e-01 -1.1800000000e-04 
1.7149259715e+06 3.3333300000e-01 -1.2000000000e-04 6.6666700000e-01 1.2000000000e-04 6.6666700000e-01 1.2000000000e-04 3.3333300000e-01 -1.2000000000e-04 
1.7450251076e+06 3.3333300000e-01 -1.2200000000e-04 6.6666700000e-01 1.2200000000e-04 6.6666700000e-01 1.2200000000e-04 3.3333300000e-01 -1.2200000000e-04 
1.7756525220e+06 3.3333300000e-01 -1.2400000000e-04 6.6666700000e-01 1.2400000000e-04 6.6666700000e-01 1.2400000000e-04 3.3333300000e-01 -1.2400000000e-04 
1.8068174864e+06 3.3333300000e-01 -1.2600000000e-04 6.6666700000e-01 1.2600000000e-04 6.6666700000e-01 1.2600000000e-04 3.3333300000e-01 -1.2600000000e-04 
1.8385294358e+06 3.3333300000e-01 -1.2800000000e-04 6.6666700000e-01 1.2800000000e-04 6.6666700000e-01 1.2800000000e-04 3.3333300000e-01 -1.2800000000e-04 
1.8707979702e+06 3.3333300000e-01 -1.3100000000e-04 6.6666700000e-01 1.3100000000e-04 6.6666700000e-01 1.3100000000e-04 3.3333300000e-01 -1.3100000000e-04 
1.9036328585e+06 3.3333300000e-01 -1.3300000000e-04 6.6666700000e-01 1.3300000000e-04 6.6666700000e-01 1.3300000000e-04 3.3333300000e-01 -1.3300000000e-04 
1.9370440410e+06 3.3333300000e-01 -1.3500000000e-04 6.6666700000e-01 1.3500000000e-04 6.6666700000e-01 1.3500000000e-04 3.3333300000e-01 -1.3500000000e-04 
1.9710416323e+06 3.3333300000e-01 -1.3800000000e-04 6.6666700000e-01 1.3800000000e-04 6.6666700000e-01 1.3800000000e-04 3.3333300000e-01 -1.3800000000e-04 
2.0056359246e+06 3.3333300000e-01 -1.4000000000e-04 6.6666700000e-01 1.4000000000e-04 6.6666700000e-01 1.4000000000e-04 3.3333300000e-01 -1.4000000000e-04 
2.0408373909e+06 3.3333300000e-01 -1.4200000000e-04 6.6666700000e-01 1.4200000000e-04 6.6666700000e-01 1.4200000000e-04 3.3333300000e-01 -1.4200000000e-04 
2.0766566877e+06 3.3333300000e-01 -1.4500000000e-04 6.6666700000e-01 1.4500000000e-04 6.6666700000e-01 1.4500000000e-04 3.3333300000e-01 -1.4500000000e-04 
2.1131046589e+06 3.3333300000e-01 -1.4800000000e-04 6.6666700000e-01 1.4800000000e-04 6.6666700000e-01 1.4800000000e-04 3.3333300000e-01 -1.4800000000e-04 
2.1501923384e+06 3.3333300000e-01 -1.5000000000e-04 6.6666700000e-01 1.5000000000e-04 6.6666700000e-01 1.5000000000e-04 3.3333300000e-01 -1.5000000000e-04 
2.1879309539e+06 3.3333300000e-01 -1.5300000000e-04 6.6666700000e-01 1.5300000000e-04 6.6666700000e-01 1.5300000000e-04 3.3333300000e-01 -1.5300000000e-04 
2.2263319302e+06 3.3333300000e-01 -1.5500000000e-04 6.6666700000e-01 1.5500000000e-04 6.6666700000e-01 1.5500000000e-04 3.3333300000e-01 -1.5500000000e-04 
2.2654068926e+06 3.3333300000e-01 -1.5800000000e-04 6.6666700000e-01 1.5800000000e-04 6.6666700000e-01 1.5800000000e-04 3.3333300000e-01 -1.5800000000e-04 
2.3051676704e+06 3.3333300000e-01 -1.6100000000e-04 6.6666700000e-01 1.6100000000e-04 6.6666700000e-01 1.6100000000e-04 3.3333300000e-01 -1.6100000000e-04 
2.3456263005e+06 3.3333300000e-01 -1.6400000000e-04 6.6666700000e-01 1.6400000000e-04 6.6666700000e-01 1.6400000000e-04 3.3333300000e-01 -1.6400000000e-04 
2.3867950311e+06 3.3333300000e-01 -1.6700000000e-04 6.6666700000e-01 1.6700000000e-04 6.6666700000e-01 1.6700000000e-04 3.3333300000e-01 -1.6700000000e-04 
2.4286863253e+06 3.3333300000e-01 -1.7000000000e-04 6.6666700000e-01 1.7000000000e-04 6.6666700000e-01 1.7000000000e-04 3.3333300000e-01 -1.7000000000e-04 
2.4713128652e+06 3.3333300000e-01 -1.7300000000e-04 6.6666700000e-01 1.7300000000e-04 6.6666700000e-01 1.7300000000e-04 3.3333300000e-01 -1.7300000000e-04 
2.5146875552e+06 3.3333300000e-01 -1.7600000000e-04 6.6666700000e-01 1.7600000000e-04 6.6666700000e-01 1.7600000000e-04 3.3333300000e-01 -1.7600000000e-04 
2.5588235263e+06 3.3333300000e-01 -1.7900000000e-04 6.6666700000e-01 1.7900000000e-04 6.6666700000e-01 1.7900000000e-04 3.3333300000e-01 -1.7900000000e-04 
2.6037341399e+06 3.3333300000e-01 -1.8200000000e-04 6.6666700000e-01 1.8200000000e-04 6.6666700000e-01 1.8200000000e-04 3.3333300000e-01 -1.8200000000e-04 
2.6494329919e+06 3.3333300000e-01 -1.8500000000e-04 6.6666700000e-01 1.8500000000e-04 6.6666700000e-01 1.8500000000e-04 3.3333300000e-01 -1.8500000000e-04 
2.6959339171e+06 3.3333300000e-01 -1.8800000000e-04 6.6666700000e-01 1.8800000000e-04 6.6666700000e-01 1.8800000000e-04 3.3333300000e-01 -1.8800000000e-04 
2.7432509928e+06 3.3333300000e-01 -1.9200000000e-04 6.6666700000e-01 1.9200000000e-04 6.6666700000e-01 1.9200000000e-04 3.3333300000e-01 -1.9200000000e-04 
2.7913985434e+06 3.3333300000e-01 -1.9500000000e-04 6.6666700000e-01 1.9500000000e-04 6.6666700000e-01 1.9500000000e-04 3.3333300000e-01 -1.9500000000e-04 
2.8403911450e+06 3.3333300000e-01 -1.9800000000e-04 6.6666700000e-01 1.9800000000e-04 6.6666700000e-01 1.9800000000e-04 3.3333300000e-01 -1.9800000000e-04 
2.8902436291e+06 3.3333300000e-01 -2.0200000000e-04 6.6666700000e-01 2.0200000000e-04 6.6666700000e-01 2.0200000000e-04 3.3333300000e-01 -2.0200000000e-04 
2.9409710878e+06 3.3333300000e-01 -2.0500000000e-04 6.6666700000e-01 2.0500000000e-04 6.6666700000e-01 2.0500000000e-04 3.3333300000e-01 -2.0500000000e-04 
2.9925888780e+06 3.3333300000e-01 -2.0900000000e-04 6.6666700000e-01 2.0900000000e-04 6.6666700000e-01 2.0900000000e-04 3.3333300000e-01 -2.0900000000e-04 
3.0451126263e+06 3.3333300000e-01 -2.1300000000e-04 6.6666700000e-01 2.1300000000e-04 6.6666700000e-01 2.1300000000e-04 3.3333300000e-01 -2.1300000000e-04 
3.0985582333e+06 3.3333300000e-01 -2.1600000000e-04 6.6666700000e-01 2.1600000000e-04 6.6666700000e-01 2.1600000000e-04 3.3333300000e-01 -2.1600000000e-04 
3.1529418788e+06 3.3333300000e-01 -2.2000000000e-04 6.6666700000e-01 2.2000000000e-04 6.6666700000e-01 2.2000000000e-04 3.3333300000e-01 -2.2000000000e-04 
3.2082800265e+06 3.3333300000e-01 -2.2400000000e-04 6.6666700000e-01 2.2400000000e-04 6.6666700000e-01 2.2400000000e-04 3.3333300000e-01 -2.2400000000e-04 
3.2645894293e+06 3.3333300000e-01 -2.2800000000e-04 6.6666700000e-01 2.2800000000e-04 6.6666700000e-01 2.2800000000e-04 3.3333300000e-01 -2.2800000000e-04 
3.3218871339e+06 3.3333300000e-01 -2.3200000000e-04 6.6666700000e-01 2.3200000000e-04 6.6666700000e-01 2.3200000000e-04 3.3333300000e-01 -2.3200000000e-04 
3.3801904861e+06 3.3333300000e-01 -2.3600000000e-04 6.6666700000e-01 2.3600000000e-04 6.6666700000e-01 2.3600000000e-04 3.3333300000e-01 -2.3600000000e-04 
3.4395171365e+06 3.3333300000e-01 -2.4000000000e-04 6.6666700000e-01 2.4000000000e-04 6.6666700000e-01 2.4000000000e-04 3.3333300000e-01 -2.4000000000e-04 
3.4998850453e+06 3.3333300000e-01 -2.4400000000e-04 6.6666700000e-01 2.4400000000e-04 6.6666700000e-01 2.4400000000e-04 3.3333300000e-01 -2.4400000000e-04 
3.5613124877e+06 3.3333300000e-01 -2.4900000000e-04 6.6666700000e-01 2.4900000000e-04 6.6666700000e-01 2.4900000000e-04 3.3333300000e-01 -2.4900000000e-04 
3.6238180600e+06 3.3333300000e-01 -2.5300000000e-04 6.6666700000e-01 2.5300000000e-04 6.6666700000e-01 2.5300000000e-04 3.3333300000e-01 -2.5300000000e-04 
3.6874206848e+06 3.3333300000e-01 -2.5700000000e-04 6.6666700000e-01 2.5700000000e-04 6.6666700000e-01 2.5700000000e-04 3.3333300000e-01 -2.5700000000e-04 
3.7521396167e+06 3.3333300000e-01 -2.6200000000e-04 6.6666700000e-01 2.6200000000e-04 6.6666700000e-01 2.6200000000e-04 3.3333300000e-01 -2.6200000000e-04 
3.8179944483e+06 3.3333300000e-01 -2.6700000000e-04 6.6666700000e-01 2.6700000000e-04 6.6666700000e-01 2.6700000000e-04 3.3333300000e-01 -2.6700000000e-04 
3.8850051162e+06 3.3333300000e-01 -2.7100000000e-04 6.6666700000e-01 2.7100000000e-04 6.6666700000e-01 2.7100000000e-04 3.3333300000e-01 -2.7100000000e-04 
3.9531919066e+06 3.3333300000e-01 -2.7600000000e-04 6.6666700000e-01 2.7600000000e-04 6.6666700000e-01 2.7600000000e-04 3.3333300000e-01 -2.7600000000e-04 
4.0225754621e+06 3.3333300000e-01 -2.8100000000e-04 6.6666700000e-01 2.8100000000e-04 6.6666700000e-01 2.8100000000e-04 3.3333300000e-01 -2.8100000000e-04 
4.0931767874e+06 3.3333300000e-01 -2.8600000000e-04 6.6666700000e-01 2.8600000000e-04 6.6666700000e-01 2.8600000000e-04 3.3333300000e-01 -2.8600000000e-04 
4.1650172560e+06 3.3333300000e-01 -2.9100000000e-04 6.6666700000e-01 2.9100000000e-04 6.6666700000e-01 2.9100000000e-04 3.3333300000e-01 -2.9100000000e-04 
4.2381186163e+06 3.3333300000e-01 -2.9600000000e-04 6.6666700000e-01 2.9600000000e-04 6.6666700000e-01 2.9600000000e-04 3.3333300000e-01 -2.9600000000e-04 
4.3125029987e+06 3.3333300000e-01 -3.0100000000e-04 6.6666700000e-01 3.0100000000e-04 6.6666700000e-01 3.0100000000e-04 3.3333300000e-01 -3.0100000000e-04 
4.3881929217e+06 3.3333300000e-01 -3.0600000000e-04 6.6666700000e-01 3.0600000000e-04 6.6666700000e-01 3.0600000000e-04 3.3333300000e-01 -3.0600000000e-04 
4.4652112994e+06 3.3333300000e-01 -3.1200000000e-04 6.6666700000e-01 3.1200000000e-04 6.6666700000e-01 3.1200000000e-04 3.3333300000e-01 -3.1200000000e-04 
4.5435814477e+06 3.3333300000e-01 -3.1700000000e-04 6.6666700000e-01 3.1700000000e-04 6.6666700000e-01 3.1700000000e-04 3.3333300000e-01 -3.1700000000e-04 
4.6233270920e+06 3.3333300000e-01 -3.2300000000e-04 6.6666700000e-01 3.2300000000e-04 6.6666700000e-01 3.2300000000e-04 3.3333300000e-01 -3.2300000000e-04 
4.7044723739e+06 3.3333300000e-01 -3.2800000000e-04 6.6666700000e-01 3.2800000000e-04 6.6666700000e-01 3.2800000000e-04 3.3333300000e-01 -3.2800000000e-04 
4.7870418590e+06 3.3333300000e-01 -3.3400000000e-04 6.6666700000e-01 3.3400000000e-04 6.6666700000e-01 3.3400000000e-04 3.3333300000e-01 -3.3400000000e-04 
4.8710605437e+06 3.3333300000e-01 -3.4000000000e-04 6.6666700000e-01 3.4000000000e-04 6.6666700000e-01 3.4000000000e-04 3.3333300000e-01 -3.4000000000e-04 
4.9565538635e+06 3.3333300000e-01 -3.4600000000e-04 6.6666700000e-01 3.4600000000e-04 6.6666700000e-01 3.4600000000e-04 3.3333300000e-01 -3.4600000000e-04 
5.0435476999e+06 3.3333300000e-01 -3.5200000000e-04 6.6666700000e-01 3.5200000000e-04 6.6666700000e-01 3.5200000000e-04 3.3333300000e-01 -3.5200000000e-04 
5.1320683890e+06 3.3333300000e-01 -3.5800000000e-04 6.6666700000e-01 3.5800000000e-04 6.6666700000e-01 3.5800000000e-04 3.3333300000e-01 -3.5800000000e-04 
5.2221427290e+06 3.3333300000e-01 -3.6500000000e-04 6.6666700000e-01 3.6500000000e-04 6.6666700000e-01 3.6500000000e-04 3.3333300000e-01 -3.6500000000e-04 
5.3137979885e+06 3.3333300000e-01 -3.7100000000e-04 6.6666700000e-01 3.7100000000e-04 6.6666700000e-01 3.7100000000e-04 3.3333300000e-01 -3.7100000000e-04 
5.4070619146e+06 3.3333300000e-01 -3.7700000000e-04 6.6666700000e-01 3.7700000000e-04 6.6666700000e-01 3.7700000000e-04 3.3333300000e-01 -3.7700000000e-04 
5.5019627414e+06 3.3333300000e-01 -3.8400000000e-04 6.6666700000e-01 3.8400000000e-04 6.6666700000e-01 3.8400000000e-04 3.3333300000e-01 -3.8400000000e-04 
5.5985291986e+06 3.3333300000e-01 -3.9100000000e-04 6.6666700000e-01 3.9100000000e-04 6.6666700000e-01 3.9100000000e-04 3.3333300000e-01 -3.9100000000e-04 
5.6967905203e+06 3.3333300000e-01 -3.9800000000e-04 6.6666700000e-01 3.9800000000e-04 6.6666700000e-01 3.9800000000e-04 3.3333300000e-01 -3.9800000000e-04 
5.7967764533e+06 3.3333300000e-01 -4.0500000000e-04 6.6666700000e-01 4.0500000000e-04 6.6666700000e-01 4.0500000000e-04 3.3333300000e-01 -4.0500000000e-04 
5.8985172669e+06 3.3333300000e-01 -4.1200000000e-04 6.6666700000e-01 4.1200000000e-04 6.6666700000e-01 4.1200000000e-04 3.3333300000e-01 -4.1200000000e-04 
6.0020437614e+06 3.3333300000e-01 -4.1900000000e-04 6.6666700000e-01 4.1900000000e-04 6.6666700000e-01 4.1900000000e-04 3.3333300000e-01 -4.1900000000e-04 
6.1073872778e+06 3.3333300000e-01 -4.2600000000e-04 6.6666700000e-01 4.2600000000e-04 6.6666700000e-01 4.2600000000e-04 3.3333300000e-01 -4.2600000000e-04 
6.2145797072e+06 3.3333300000e-01 -4.3400000000e-04 6.6666700000e-01 4.3400000000e-04 6.6666700000e-01 4.3400000000e-04 3.3333300000e-01 -4.3400000000e-04 
6.3236535003e+06 3.3333300000e-01 -4.4100000000e-04 6.6666700000e-01 4.4100000000e-04 6.6666700000e-01 4.4100000000e-04 3.3333300000e-01 -4.4100000000e-04 
6.4346416774e+06 3.3333300000e-01 -4.4900000000e-04 6.6666700000e-01 4.4900000000e-04 6.6666700000e-01 4.4900000000e-04 3.3333300000e-01 -4.4900000000e-04 
6.5475778385e+06 3.3333300000e-01 -4.5700000000e-04 6.6666700000e-01 4.5700000000e-04 6.6666700000e-01 4.5700000000e-04 3.3333300000e-01 -4.5700000000e-04 
6.6624961732e+06 3.3333300000e-01 -4.6500000000e-04 6.6666700000e-01 4.6500000000e-04 6.6666700000e-01 4.6500000000e-04 3.3333300000e-01 -4.6500000000e-04 
6.7794314710e+06 3.3333300000e-01 -4.7300000000e-04 6.6666700000e-01 4.7300000000e-04 6.6666700000e-01 4.7300000000e-04 3.3333300000e-01 -4.7300000000e-04 
6.8984191324e+06 3.3333300000e-01 -4.8200000000e-04 6.6666700000e-01 4.8200000000e-04 6.6666700000e-01 4.8200000000e-04 3.3333300000e-01 -4.8200000000e-04 
7.0194951788e+06 3.3333300000e-01 -4.9000000000e-04 6.6666700000e-01 4.9000000000e-04 6.6666700000e-01 4.9000000000e-04 3.3333300000e-01 -4.9000000000e-04 
7.1426962641e+06 3.3333300000e-01 -4.9900000000e-04 6.6666700000e-01 4.9900000000e-04 6.6666700000e-01 4.9900000000e-04 3.3333300000e-01 -4.9900000000e-04 
7.2680596855e+06 3.3333300000e-01 -5.0700000000e-04 6.6666700000e-01 5.0700000000e-04 6.6666700000e-01 5.0700000000e-04 3.3333300000e-01 -5.0700000000e-04 
7.3956233946e+06 3.3333300000e-01 -5.1600000000e-04 6.6666700000e-01 5.1600000000e-04 6.6666700000e-01 5.1600000000e-04 3.3333300000e-01 -5.1600000000e-04 
7.5254260095e+06 3.3333300000e-01 -5.2500000000e-04 6.6666700000e-01 5.2500000000e-04 6.6666700000e-01 5.2500000000e-04 3.3333300000e-01 -5.2500000000e-04 
7.6575068256e+06 3.3333200000e-01 -5.3500000000e-04 6.6666800000e-01 5.3500000000e-04 6.6666800000e-01 5.3500000000e-04 3.3333200000e-01 -5.3500000000e-04 
7.7919058283e+06 3.3333200000e-01 -5.4400000000e-04 6.6666800000e-01 5.4400000000e-04 6.6666800000e-01 5.4400000000e-04 3.3333200000e-01 -5.4400000000e-04 
7.9286637048e+06 3.3333200000e-01 -5.5400000000e-04 6.6666800000e-01 5.5400000000e-04 6.6666800000e-01 5.5400000000e-04 3.3333200000e-01 -5.5400000000e-04 
8.0678218563e+06 3.3333200000e-01 -5.6300000000e-04 6.6666800000e-01 5.6300000000e-04 6.6666800000e-01 5.6300000000e-04 3.3333200000e-01 -5.6300000000e-04 
8.2094224107e+06 3.3333200000e-01 -5.7300000000e-04 6.6666800000e-01 5.7300000000e-04 6.6666800000e-01 5.7300000000e-04 3.3333200000e-01 -5.7300000000e-04 
8.3535082353e+06 3.3333200000e-01 -5.8300000000e-04 6.6666800000e-01 5.8300000000e-04 6.6666800000e-01 5.8300000000e-04 3.3333200000e-01 -5.8300000000e-04 
8.5001229497e+06 3.3333200000e-01 -5.9300000000e-04 6.6666800000e-01 5.9300000000e-04 6.6666800000e-01 5.9300000000e-04 3.3333200000e-01 -5.9300000000e-04 
8.6493109391e+06 3.3333200000e-01 -6.0400000000e-04 6.6666800000e-01 6.0400000000e-04 6.6666800000e-01 6.0400000000e-04 3.3333200000e-01 -6.0400000000e-04 
8.8011173679e+06 3.3333200000e-01 -6.1400000000e-04 6.6666800000e-01 6.1400000000e-04 6.6666800000e-01 6.1400000000e-04 3.3333200000e-01 -6.1400000000e-04 
8.9555881930e+06 3.3333200000e-01 -6.2500000000e-04 6.6666800000e-01 6.2500000000e-04 6.6666800000e-01 6.2500000000e-04 3.3333200000e-01 -6.2500000000e-04 
9.1127701779e+06 3.3333200000e-01 -6.3600000000e-04 6.6666800000e-01 6.3600000000e-04 6.6666800000e-01 6.3600000000e-04 3.3333200000e-01 -6.3600000000e-04 
9.2727109069e+06 3.3333200000e-01 -6.4700000000e-04 6.6666800000e-01 6.4700000000e-04 6.6666800000e-01 6.4700000000e-04 3.3333200000e-01 -6.4700000000e-04 
9.4354587995e+06 3.3333200000e-01 -6.5900000000e-04 6.6666800000e-01 6.5900000000e-04 6.6666800000e-01 6.5900000000e-04 3.3333200000e-01 -6.5900000000e-04 
9.6010631250e+06 3.3333200000e-01 -6.7000000000e-04 6.6666800000e-01 6.7000000000e-04 6.6666800000e-01 6.7000000000e-04 3.3333200000e-01 -6.7000000000e-04 
9.7695740175e+06 3.3333200000e-01 -6.8200000000e-04 6.6666800000e-01 6.8200000000e-04 6.6666800000e-01 6.8200000000e-04 3.3333200000e-01 -6.8200000000e-04 
9.9410424909e+06 3.3333200000e-01 -6.9400000000e-04 6.6666800000e-01 6.9400000000e-04 6.6666800000e-01 6.9400000000e-04 3.3333200000e-01 -6.9400000000e-04 
1.0115520454e+07 3.3333200000e-01 -7.0600000000e-04 6.6666800000e-01 7.0600000000e-04 6.6666800000e-01 7.0600000000e-04 3.3333200000e-01 -7.0600000000e-04 
1.0293060729e+07 3.3333200000e-01 -7.1900000000e-04 6.6666800000e-01 7.1900000000e-04 6.6666800000e-01 7.1900000000e-04 3.3333200000e-01 -7.1900000000e-04 
1.0473717061e+07 3.3333200000e-01 -7.3100000000e-04 6.6666800000e-01 7.3100000000e-04 6.6666800000e-01 7.3100000000e-04 3.3333200000e-01 -7.3100000000e-04 
1.0657544142e+07 3.3333200000e-01 -7.4400000000e-04 6.6666800000e-01 7.4400000000e-04 6.6666800000e-01 7.4400000000e-04 3.3333200000e-01 -7.4400000000e-04 
1.0844597623e+07 3.3333200000e-01 -7.5700000000e-04 6.6666800000e-01 7.5700000000e-04 6.6666800000e-01 7.5700000000e-04 3.3333200000e-01 -7.5700000000e-04 
1.1034934130e+07 3.3333200000e-01 -7.7000000000e-04 6.6666800000e-01 7.7000000000e-04 6.6666800000e-01 7.7000000000e-04 3.3333200000e-01 -7.7000000000e-04 
1.1228611286e+07 3.3333100000e-01 -7.8400000000e-04 6.6666900000e-01 7.8400000000e-04 6.6666900000e-01 7.8400000000e-04 3.3333100000e-01 -7.8400000000e-04 
1.1425687723e+07 3.3333100000e-01 -7.9800000000e-04 6.6666900000e-01 7.9800000000e-04 6.6666900000e-01 7.9800000000e-04 3.3333100000e-01 -7.9800000000e-04 
1.1626223102e+07 3.3333100000e-01 -8.1200000000e-04 6.6666900000e-01 8.1200000000e-04 6.6666900000e-01 8.1200000000e-04 3.3333100000e-01 -8.1200000000e-04 
1.1830278133e+07 3.3333100000e-01 -8.2600000000e-04 6.6666900000e-01 8.2600000000e-04 6.6666900000e-01 8.2600000000e-04 3.3333100000e-01 -8.2600000000e-04 
1.2037914589e+07 3.3333100000e-01 -8.4000000000e-04 6.6666900000e-01 8.4000000000e-04 6.6666900000e-01 8.4000000000e-04 3.3333100000e-01 -8.4000000000e-04 
1.2249195330e+07 3.3333100000e-01 -8.5500000000e-04 6.6666900000e-01 8.5500000000e-04 6.6666900000e-01 8.5500000000e-04 3.3333100000e-01 -8.5500000000e-04 
1.2464184317e+07 3.3333100000e-01 -8.7000000000e-04 6.6666900000e-01 8.7000000000e-04 6.6666900000e-01 8.7000000000e-04 3.3333100000e-01 -8.7000000000e-04 
1.2682946635e+07 3.3333100000e-01 -8.8500000000e-04 6.6666900000e-01 8.8500000000e-04 6.6666900000e-01 8.8500000000e-04 3.3333100000e-01 -8.8500000000e-04 
1.2905548510e+07 3.3333100000e-01 -9.0100000000e-04 6.6666900000e-01 9.0100000000e-04 6.6666900000e-01 9.0100000000e-04 3.3333100000e-01 -9.0100000000e-04 
1.3132057332e+07 3.3333100000e-01 -9.1700000000e-04 6.6666900000e-01 9.1700000000e-04 6.6666900000e-01 9.1700000000e-04 3.3333100000e-01 -9.1700000000e-04 
1.3362541673e+07 3.3333100000e-01 -9.3300000000e-04 6.6666900000e-01 9.3300000000e-04 6.6666900000e-01 9.3300000000e-04 3.3333100000e-01 -9.3300000000e-04 
1.3597071307e+07 3.3333100000e-01 -9.4900000000e-04 6.6666900000e-01 9.4900000000e-04 6.6666900000e-01 9.4900000000e-04 3.3333100000e-01 -9.4900000000e-04 
1.3835717235e+07 3.3333100000e-01 -9.6600000000e-04 6.6666900000e-01 9.6600000000e-04 6.6666900000e-01 9.6600000000e-04 3.3333100000e-01 -9.6600000000e-04 
1.4078551703e+07 3.3333000000e-01 -9.8300000000e-04 6.6667000000e-01 9.8300000000e-04 6.6667000000e-01 9.8300000000e-04 3.3333000000e-01 -9.8300000000e-04 
1.4325648226e+07 3.3333000000e-01 -1.0000000000e-03 6.6667000000e-01 1.0000000000e-03 6.6667000000e-01 1.0000000000e-03 3.3333000000e-01 -1.0000000000e-03 
1.4577081607e+07 3.3333000000e-01 -1.0180000000e-03 6.6667000000e-01 1.0180000000e-03 6.6667000000e-01 1.0180000000e-03 3.3333000000e-01 -1.0180000000e-03 
1.4832927965e+07 3.3333000000e-01 -1.0360000000e-03 6.6667000000e-01 1.0360000000e-03 6.6667000000e-01 1.0360000000e-03 3.3333000000e-01 -1.0360000000e-03 
1.5093264753e+07 3.3333000000e-01 -1.0540000000e-03 6.6667000000e-01 1.0540000000e-03 6.6667000000e-01 1.0540000000e-03 3.3333000000e-01 -1.0540000000e-03 
1.5358170782e+07 3.3333000000e-01 -1.0720000000e-03 6.6667000000e-01 1.0720000000e-03 6.6667000000e-01 1.0720000000e-03 3.3333000000e-01 -1.0720000000e-03 
1.5627726250e+07 3.3333000000e-01 -1.0910000000e-03 6.6667000000e-01 1.0910000000e-03 6.6667000000e-01 1.0910000000e-03 3.3333000000e-01 -1.0910000000e-03 
1.5902012761e+07 3.3333000000e-01 -1.1100000000e-03 6.6667000000e-01 1.1100000000e-03 6.6667000000e-01 1.1100000000e-03 3.3333000000e-01 -1.1100000000e-03 
1.6181113348e+07 3.3333000000e-01 -1.1300000000e-03 6.6667000000e-01 1.1300000000e-03 6.6667000000e-01 1.1300000000e-03 3.3333000000e-01 -1.1300000000e-03 
1.6465112507e+07 3.3332900000e-01 -1.1490000000e-03 6.6667100000e-01 1.1490000000e-03 6.6667100000e-01 1.1490000000e-03 3.3332900000e-01 -1.1490000000e-03 
1.6754096213e+07 3.3332900000e-01 -1.1700000000e-03 6.6667100000e-01 1.1700000000e-03 6.6667100000e-01 1.1700000000e-03 3.3332900000e-01 -1.1700000000e-03 
1.7048151952e+07 3.3332900000e-01 -1.1900000000e-03 6.6667100000e-01 1.1900000000e-03 6.6667100000e-01 1.1900000000e-03 3.3332900000e-01 -1.1900000000e-03 
1.7347368743e+07 3.3332900000e-01 -1.2110000000e-03 6.6667100000e-01 1.2110000000e-03 6.6667100000e-01 1.2110000000e-03 3.3332900000e-01 -1.2110000000e-03 
1.7651837170e+07 3.3332900000e-01 -1.2320000000e-03 6.6667100000e-01 1.2320000000e-03 6.6667100000e-01 1.2320000000e-03 3.3332900000e-01 -1.2320000000e-03 
1.7961649406e+07 3.3332900000e-01 -1.2540000000e-03 6.6667100000e-01 1.2540000000e-03 6.6667100000e-01 1.2540000000e-03 3.3332900000e-01 -1.2540000000e-03 
1.8276899242e+07 3.3332800000e-01 -1.2760000000e-03 6.6667200000e-01 1.2760000000e-03 6.6667200000e-01 1.2760000000e-03 3.3332800000e-01 -1.2760000000e-03 
1.8597682113e+07 3.3332800000e-01 -1.2980000000e-03 6.6667200000e-01 1.2980000000e-03 6.6667200000e-01 1.2980000000e-03 3.3332800000e-01 -1.2980000000e-03 
1.8924095134e+07 3.3332800000e-01 -1.3210000000e-03 6.6667200000e-01 1.3210000000e-03 6.6667200000e-01 1.3210000000e-03 3.3332800000e-01 -1.3210000000e-03 
1.9256237118e+07 3.3332800000e-01 -1.3440000000e-03 6.6667200000e-01 1.3440000000e-03 6.6667200000e-01 1.3440000000e-03 3.3332800000e-01 -1.3440000000e-03 
1.9594208618e+07 3.3332800000e-01 -1.3680000000e-03 6.6667200000e-01 1.3680000000e-03 6.6667200000e-01 1.3680000000e-03 3.3332800000e-01 -1.3680000000e-03 
1.9938111948e+07 3.3332800000e-01 -1.3920000000e-03 6.6667200000e-01 1.3920000000e-03 6.6667200000e-01 1.3920000000e-03 3.3332800000e-01 -1.3920000000e-03 
2.0288051220e+07 3.3332700000e-01 -1.4160000000e-03 6.6667300000e-01 1.4160000000e-03 6.6667300000e-01 1.4160000000e-03 3.3332700000e-01 -1.4160000000e-03 
2.0644132372e+07 3.3332700000e-01 -1.4410000000e-03 6.6667300000e-01 1.4410000000e-03 6.6667300000e-01 1.4410000000e-03 3.3332700000e-01 -1.4410000000e-03 
2.1006463202e+07 3.3332700000e-01 -1.4660000000e-03 6.6667300000e-01 1.4660000000e-03 6.6667300000e-01 1.4660000000e-03 3.3332700000e-01 -1.4660000000e-03 
2.1375153399e+07 3.3332700000e-01 -1.4920000000e-03 6.6667300000e-01 1.4920000000e-03 6.6667300000e-01 1.4920000000e-03 3.3332700000e-01 -1.4920000000e-03 
2.1750314580e+07 3.3332600000e-01 -1.5180000000e-03 6.6667400000e-01 1.5180000000e-03 6.6667400000e-01 1.5180000000e-03 3.3332600000e-01 -1.5180000000e-03 
2.2132060317e+07 3.3332600000e-01 -1.5450000000e-03 6.6667400000e-01 1.5450000000e-03 6.6667400000e-01 1.5450000000e-03 3.3332600000e-01 -1.5450000000e-03 
2.2520506178e+07 3.3332600000e-01 -1.5720000000e-03 6.6667400000e-01 1.5720000000e-03 6.6667400000e-01 1.5720000000e-03 3.3332600000e-01 -1.5720000000e-03 
2.2915769760e+07 3.3332600000e-01 -1.6000000000e-03 6.6667400000e-01 1.6000000000e-03 6.6667400000e-01 1.6000000000e-03 3.3332600000e-01 -1.6000000000e-03 
2.3317970721e+07 3.3332500000e-01 -1.6280000000e-03 6.6667500000e-01 1.6280000000e-03 6.6667500000e-01 1.6280000000e-03 3.3332500000e-01 -1.6280000000e-03 
2.3727230821e+07 3.3332500000e-01 -1.6560000000e-03 6.6667500000e-01 1.6560000000e-03 6.6667500000e-01 1.6560000000e-03 3.3332500000e-01 -1.6560000000e-03 
2.4143673957e+07 3.3332500000e-01 -1.6860000000e-03 6.6667500000e-01 1.6860000000e-03 6.6667500000e-01 1.6860000000e-03 3.3332500000e-01 -1.6860000000e-03 
2.4567426201e+07 3.3332500000e-01 -1.7150000000e-03 6.6667500000e-01 1.7150000000e-03 6.6667500000e-01 1.7150000000e-03 3.3332500000e-01 -1.7150000000e-03 
2.4998615838e+07 3.3332400000e-01 -1.7450000000e-03 6.6667600000e-01 1.7450000000e-03 6.6667600000e-01 1.7450000000e-03 3.3332400000e-01 -1.7450000000e-03 
2.5437373401e+07 3.3332400000e-01 -1.7760000000e-03 6.6667600000e-01 1.7760000000e-03 6.6667600000e-01 1.7760000000e-03 3.3332400000e-01 -1.7760000000e-03 
2.5883831719e+07 3.3332400000e-01 -1.8070000000e-03 6.6667600000e-01 1.8070000000e-03 6.6667600000e-01 1.8070000000e-03 3.3332400000e-01 -1.8070000000e-03 
2.6338125950e+07 3.3332300000e-01 -1.8390000000e-03 6.6667700000e-01 1.8390000000e-03 6.6667700000e-01 1.8390000000e-03 3.3332300000e-01 -1.8390000000e-03 
2.6800393623e+07 3.3332300000e-01 -1.8710000000e-03 6.6667700000e-01 1.8710000000e-03 6.6667700000e-01 1.8710000000e-03 3.3332300000e-01 -1.8710000000e-03 
2.7270774683e+07 3.3332200000e-01 -1.9040000000e-03 6.6667800000e-01 1.9040000000e-03 6.6667800000e-01 1.9040000000e-03 3.3332200000e-01 -1.9040000000e-03 
2.7749411529e+07 3.3332200000e-01 -1.9370000000e-03 6.6667800000e-01 1.9370000000e-03 6.6667800000e-01 1.9370000000e-03 3.3332200000e-01 -1.9370000000e-03 
2.8236449063e+07 3.3332200000e-01 -1.9710000000e-03 6.6667800000e-01 1.9710000000e-03 6.6667800000e-01 1.9710000000e-03 3.3332200000e-01 -1.9710000000e-03 
2.8732034725e+07 3.3332100000e-01 -2.0060000000e-03 6.6667900000e-01 2.0060000000e-03 6.6667900000e-01 2.0060000000e-03 3.3332100000e-01 -2.0060000000e-03 
2.9236318548e+07 3.3332100000e-01 -2.0410000000e-03 6.6667900000e-01 2.0410000000e-03 6.6667900000e-01 2.0410000000e-03 3.3332100000e-01 -2.0410000000e-03 
2.9749453194e+07 3.3332000000e-01 -2.0770000000e-03 6.6668000000e-01 2.0770000000e-03 6.6668000000e-01 2.0770000000e-03 3.3332000000e-01 -2.0770000000e-03 
3.0271594008e+07 3.3332000000e-01 -2.1130000000e-03 6.6668000000e-01 2.1130000000e-03 6.6668000000e-01 2.1130000000e-03 3.3332000000e-01 -2.1130000000e-03 
3.0802899058e+07 3.3331900000e-01 -2.1500000000e-03 6.6668100000e-01 2.1500000000e-03 6.6668100000e-01 2.1500000000e-03 3.3331900000e-01 -2.1500000000e-03 
3.1343529188e+07 3.3331900000e-01 -2.1880000000e-03 6.6668100000e-01 2.1880000000e-03 6.6668100000e-01 2.1880000000e-03 3.3331900000e-01 -2.1880000000e-03 
3.1893648066e+07 3.3331800000e-01 -2.2260000000e-03 6.6668200000e-01 2.2260000000e-03 6.6668200000e-01 2.2260000000e-03 3.3331800000e-01 -2.2260000000e-03 
3.2453422232e+07 3.3331800000e-01 -2.2660000000e-03 6.6668200000e-01 2.2660000000e-03 6.6668200000e-01 2.2660000000e-03 3.3331800000e-01 -2.2660000000e-03 
3.3023021148e+07 3.3331700000e-01 -2.3050000000e-03 6.6668300000e-01 2.3050000000e-03 6.6668300000e-01 2.3050000000e-03 3.3331700000e-01 -2.3050000000e-03 
3.3602617250e+07 3.3331700000e-01 -2.3460000000e-03 6.6668300000e-01 2.3460000000e-03 6.6668300000e-01 2.3460000000e-03 3.3331700000e-01 -2.3460000000e-03 
3.4192386002e+07 3.3331600000e-01 -2.3870000000e-03 6.6668400000e-01 2.3870000000e-03 6.6668400000e-01 2.3870000000e-03 3.3331600000e-01 -2.3870000000e-03 
3.4792505948e+07 3.3331600000e-01 -2.4290000000e-03 6.6668400000e-01 2.4290000000e-03 6.6668400000e-01 2.4290000000e-03 3.3331600000e-01 -2.4290000000e-03 
3.5403158763e+07 3.3331500000e-01 -2.4710000000e-03 6.6668500000e-01 2.4710000000e-03 6.6668500000e-01 2.4710000000e-03 3.3331500000e-01 -2.4710000000e-03 
3.6024529314e+07 3.3331400000e-01 -2.5150000000e-03 6.6668600000e-01 2.5150000000e-03 6.6668600000e-01 2.5150000000e-03 3.3331400000e-01 -2.5150000000e-03 
3.6656805709e+07 3.3331400000e-01 -2.5590000000e-03 6.6668600000e-01 2.5590000000e-03 6.6668600000e-01 2.5590000000e-03 3.3331400000e-01 -2.5590000000e-03 
3.7300179361e+07 3.3331300000e-01 -2.6040000000e-03 6.6668700000e-01 2.6040000000e-03 6.6668700000e-01 2.6040000000e-03 3.3331300000e-01 -2.6040000000e-03 
3.7954845041e+07 3.3331200000e-01 -2.6500000000e-03 6.6668800000e-01 2.6500000000e-03 6.6668800000e-01 2.6500000000e-03 3.3331200000e-01 -2.6500000000e-03 
3.8621000937e+07 3.3331200000e-01 -2.6960000000e-03 6.6668800000e-01 2.6960000000e-03 6.6668800000e-01 2.6960000000e-03 3.3331200000e-01 -2.6960000000e-03 
3.9298848718e+07 3.3331100000e-01 -2.7430000000e-03 6.6668900000e-01 2.7430000000e-03 6.6668900000e-01 2.7430000000e-03 3.3331100000e-01 -2.7430000000e-03 
3.9988593592e+07 3.3331000000e-01 -2.7920000000e-03 6.6669000000e-01 2.7920000000e-03 6.6669000000e-01 2.7920000000e-03 3.3331000000e-01 -2.7920000000e-03 
4.0690444367e+07 3.3330900000e-01 -2.8410000000e-03 6.6669100000e-01 2.8410000000e-03 6.6669100000e-01 2.8410000000e-03 3.3330900000e-01 -2.8410000000e-03 
4.1404613517e+07 3.3330800000e-01 -2.8900000000e-03 6.6669200000e-01 2.8900000000e-03 6.6669200000e-01 2.8900000000e-03 3.3330800000e-01 -2.8900000000e-03 
4.2131317246e+07 3.3330700000e-01 -2.9410000000e-03 6.6669300000e-01 2.9410000000e-03 6.6669300000e-01 2.9410000000e-03 3.3330700000e-01 -2.9410000000e-03 
4.2870775552e+07 3.3330600000e-01 -2.9930000000e-03 6.6669400000e-01 2.9930000000e-03 6.6669400000e-01 2.9930000000e-03 3.3330600000e-01 -2.9930000000e-03 
4.3623212293e+07 3.3330600000e-01 -3.0450000000e-03 6.6669400000e-01 3.0450000000e-03 6.6669400000e-01 3.0450000000e-03 3.3330600000e-01 -3.0450000000e-03 
4.4388855258e+07 3.3330500000e-01 -3.0990000000e-03 6.6669500000e-01 3.0990000000e-03 6.6669500000e-01 3.0990000000e-03 3.3330500000e-01 -3.0990000000e-03 
4.5167936232e+07 3.3330400000e-01 -3.1530000000e-03 6.6669600000e-01 3.1530000000e-03 6.6669600000e-01 3.1530000000e-03 3.3330400000e-01 -3.1530000000e-03 
4.5960691070e+07 3.3330200000e-01 -3.2080000000e-03 6.6669800000e-01 3.2080000000e-03 6.6669800000e-01 3.2080000000e-03 3.3330200000e-01 -3.2080000000e-03 
4.6767359766e+07 3.3330100000e-01 -3.2650000000e-03 6.6669900000e-01 3.2650000000e-03 6.6669900000e-01 3.2650000000e-03 3.3330100000e-01 -3.2650000000e-03 
4.7588186526e+07 3.3330000000e-01 -3.3220000000e-03 6.6670000000e-01 3.3220000000e-03 6.6670000000e-01 3.3220000000e-03 3.3330000000e-01 -3.3220000000e-03 
4.8423419841e+07 3.3329900000e-01 -3.3800000000e-03 6.6670100000e-01 3.3800000000e-03 6.6670100000e-01 3.3800000000e-03 3.3329900000e-01 -3.3800000000e-03 
4.9273312565e+07 3.3329800000e-01 -3.4400000000e-03 6.6670200000e-01 3.4400000000e-03 6.6670200000e-01 3.4400000000e-03 3.3329800000e-01 -3.4400000000e-03 
5.0138121990e+07 3.3329700000e-01 -3.5000000000e-03 6.6670300000e-01 3.5000000000e-03 6.6670300000e-01 3.5000000000e-03 3.3329700000e-01 -3.5000000000e-03 
5.1018109921e+07 3.3329500000e-01 -3.5610000000e-03 6.6670500000e-01 3.5610000000e-03 6.6670500000e-01 3.5610000000e-03 3.3329500000e-01 -3.5610000000e-03 
5.1913542763e+07 3.3329400000e-01 -3.6240000000e-03 6.6670600000e-01 3.6240000000e-03 6.6670600000e-01 3.6240000000e-03 3.3329400000e-01 -3.6240000000e-03 
5.2824691592e+07 3.3329300000e-01 -3.6870000000e-03 6.6670700000e-01 3.6870000000e-03 6.6670700000e-01 3.6870000000e-03 3.3329300000e-01 -3.6870000000e-03 
5.3751832244e+07 3.3329100000e-01 -3.7520000000e-03 6.6670900000e-01 3.7520000000e-03 6.6670900000e-01 3.7520000000e-03 3.3329100000e-01 -3.7520000000e-03 
5.4695245395e+07 3.3329000000e-01 -3.8180000000e-03 6.6671000000e-01 3.8180000000e-03 6.6671000000e-01 3.8180000000e-03 3.3329000000e-01 -3.8180000000e-03 
5.5655216650e+07 3.3328800000e-01 -3.8850000000e-03 6.6671200000e-01 3.8850000000e-03 6.6671200000e-01 3.8850000000e-03 3.3328800000e-01 -3.8850000000e-03 
5.6632036624e+07 3.3328600000e-01 -3.9530000000e-03 6.6671400000e-01 3.9530000000e-03 6.6671400000e-01 3.9530000000e-03 3.3328600000e-01 -3.9530000000e-03 
5.7626001033e+07 3.3328500000e-01 -4.0220000000e-03 6.6671500000e-01 4.0220000000e-03 6.6671500000e-01 4.0220000000e-03 3.3328500000e-01 -4.0220000000e-03 
5.8637410784e+07 3.3328300000e-01 -4.0930000000e-03 6.6671700000e-01 4.0930000000e-03 6.6671700000e-01 4.0930000000e-03 3.3328300000e-01 -4.0930000000e-03 
5.9666572064e+07 3.3328100000e-01 -4.1650000000e-03 6.6671900000e-01 4.1650000000e-03 6.6671900000e-01 4.1650000000e-03 3.3328100000e-01 -4.1650000000e-03 
6.0713796437e+07 3.3327900000e-01 -4.2380000000e-03 6.6672100000e-01 4.2380000000e-03 6.6672100000e-01 4.2380000000e-03 3.3327900000e-01 -4.2380000000e-03 
6.1779400932e+07 3.3327800000e-01 -4.3120000000e-03 6.6672200000e-01 4.3120000000e-03 6.6672200000e-01 4.3120000000e-03 3.3327800000e-01 -4.3120000000e-03 
6.2863708144e+07 3.3327600000e-01 -4.3880000000e-03 6.6672400000e-01 4.3880000000e-03 6.6672400000e-01 4.3880000000e-03 3.3327600000e-01 -4.3880000000e-03 
6.3967046329e+07 3.3327400000e-01 -4.4650000000e-03 6.6672600000e-01 4.4650000000e-03 6.6672600000e-01 4.4650000000e-03 3.3327400000e-01 -4.4650000000e-03 
6.5089749505e+07 3.3327100000e-01 -4.5430000000e-03 6.6672900000e-01 4.5430000000e-03 6.6672900000e-01 4.5430000000e-03 3.3327100000e-01 -4.5430000000e-03 
6.6232157553e+07 3.3326900000e-01 -4.6230000000e-03 6.6673100000e-01 4.6230000000e-03 6.6673100000e-01 4.6230000000e-03 3.3326900000e-01 -4.6230000000e-03 
6.7394616318e+07 3.3326700000e-01 -4.7040000000e-03 6.6673300000e-01 4.7040000000e-03 6.6673300000e-01 4.7040000000e-03 3.3326700000e-01 -4.7040000000e-03 
6.8577477715e+07 3.3326500000e-01 -4.7870000000e-03 6.6673500000e-01 4.7870000000e-03 6.6673500000e-01 4.7870000000e-03 3.3326500000e-01 -4.7870000000e-03 
6.9781099837e+07 3.3326200000e-01 -4.8710000000e-03 6.6673800000e-01 4.8710000000e-03 6.6673800000e-01 4.8710000000e-03 3.3326200000e-01 -4.8710000000e-03 
7.1005847061e+07 3.3326000000e-01 -4.9560000000e-03 6.6674000000e-01 4.9560000000e-03 6.6674000000e-01 4.9560000000e-03 3.3326000000e-01 -4.9560000000e-03 
7.2252090160e+07 3.3325700000e-01 -5.0430000000e-03 6.6674300000e-01 5.0430000000e-03 6.6674300000e-01 5.0430000000e-03 3.3325700000e-01 -5.0430000000e-03 
7.3520206413e+07 3.3325400000e-01 -5.1310000000e-03 6.6674600000e-01 5.1310000000e-03 6.6674600000e-01 5.1310000000e-03 3.3325400000e-01 -5.1310000000e-03 
7.4810579722e+07 3.3325200000e-01 -5.2210000000e-03 6.6674800000e-01 5.2210000000e-03 6.6674800000e-01 5.2210000000e-03 3.3325200000e-01 -5.2210000000e-03 
7.6123600727e+07 3.3324900000e-01 -5.3130000000e-03 6.6675100000e-01 5.3130000000e-03 6.6675100000e-01 5.3130000000e-03 3.3324900000e-01 -5.3130000000e-03 
7.7459666924e+07 3.3324600000e-01 -5.4060000000e-03 6.6675400000e-01 5.4060000000e-03 6.6675400000e-01 5.4060000000e-03 3.3324600000e-01 -5.4060000000e-03 
7.8819182785e+07 3.3324300000e-01 -5.5010000000e-03 6.6675700000e-01 5.5010000000e-03 6.6675700000e-01 5.5010000000e-03 3.3324300000e-01 -5.5010000000e-03 
8.0202559883e+07 3.3323900000e-01 -5.5980000000e-03 6.6676100000e-01 5.5980000000e-03 6.6676100000e-01 5.5980000000e-03 3.3323900000e-01 -5.5980000000e-03 
8.1610217011e+07 3.3323600000e-01 -5.6960000000e-03 6.6676400000e-01 5.6960000000e-03 6.6676400000e-01 5.6960000000e-03 3.3323600000e-01 -5.6960000000e-03 
8.3042580315e+07 3.3323300000e-01 -5.7960000000e-03 6.6676700000e-01 5.7960000000e-03 6.6676700000e-01 5.7960000000e-03 3.3323300000e-01 -5.7960000000e-03 
8.4500083420e+07 3.3322900000e-01 -5.8970000000e-03 6.6677100000e-01 5.8970000000e-03 6.6677100000e-01 5.8970000000e-03 3.3322900000e-01 -5.8970000000e-03 
8.5983167563e+07 3.3322500000e-01 -6.0010000000e-03 6.6677500000e-01 6.0010000000e-03 6.6677500000e-01 6.0010000000e-03 3.3322500000e-01 -6.0010000000e-03 
8.7492281722e+07 3.3322100000e-01 -6.1060000000e-03 6.6677900000e-01 6.1060000000e-03 6.6677900000e-01 6.1060000000e-03 3.3322100000e-01 -6.1060000000e-03 
8.9027882757e+07 3.3321700000e-01 -6.2130000000e-03 6.6678300000e-01 6.2130000000e-03 6.6678300000e-01 6.2130000000e-03 3.3321700000e-01 -6.2130000000e-03 
9.0590435548e+07 3.3321300000e-01 -6.3220000000e-03 6.6678700000e-01 6.3220000000e-03 6.6678700000e-01 6.3220000000e-03 3.3321300000e-01 -6.3220000000e-03 
9.2180413131e+07 3.3320900000e-01 -6.4330000000e-03 6.6679100000e-01 6.4330000000e-03 6.6679100000e-01 6.4330000000e-03 3.3320900000e-01 -6.4330000000e-03 
9.3798296847e+07 3.3320500000e-01 -6.5460000000e-03 6.6679500000e-01 6.5460000000e-03 6.6679500000e-01 6.5460000000e-03 3.3320500000e-01 -6.5460000000e-03 
9.5444576484e+07 3.3320000000e-01 -6.6610000000e-03 6.6680000000e-01 6.6610000000e-03 6.6680000000e-01 6.6610000000e-03 3.3320000000e-01 -6.6610000000e-03 
9.7119750426e+07 3.3319500000e-01 -6.7770000000e-03 6.6680500000e-01 6.7770000000e-03 6.6680500000e-01 6.7770000000e-03 3.3319500000e-01 -6.7770000000e-03 
9.8824325806e+07 3.3319100000e-01 -6.8960000000e-03 6.6680900000e-01 6.8960000000e-03 6.6680900000e-01 6.8960000000e-03 3.3319100000e-01 -6.8960000000e-03 
1.0055881866e+08 3.3318600000e-01 -7.0170000000e-03 6.6681400000e-01 7.0170000000e-03 6.6681400000e-01 7.0170000000e-03 3.3318600000e-01 -7.0170000000e-03 
1.0232375406e+08 3.3318000000e-01 -7.1400000000e-03 6.6682000000e-01 7.1400000000e-03 6.6682000000e-01 7.1400000000e-03 3.3318000000e-01 -7.1400000000e-03 
1.0411966634e+08 3.3317500000e-01 -7.2650000000e-03 6.6682500000e-01 7.2650000000e-03 6.6682500000e-01 7.2650000000e-03 3.3317500000e-01 -7.2650000000e-03 
1.0594709916e+08 3.3316900000e-01 -7.3930000000e-03 6.6683100000e-01 7.3930000000e-03 6.6683100000e-01 7.3930000000e-03 3.3316900000e-01 -7.3930000000e-03 
1.0780660576e+08 3.3316300000e-01 -7.5220000000e-03 6.6683700000e-01 7.5220000000e-03 6.6683700000e-01 7.5220000000e-03 3.3316300000e-01 -7.5220000000e-03 
1.0969874907e+08 3.3315700000e-01 -7.6540000000e-03 6.6684300000e-01 7.6540000000e-03 6.6684300000e-01 7.6540000000e-03 3.3315700000e-01 -7.6540000000e-03 
1.1162410191e+08 3.3315100000e-01 -7.7890000000e-03 6.6684900000e-01 7.7890000000e-03 6.6684900000e-01 7.7890000000e-03 3.3315100000e-01 -7.7890000000e-03 
1.1358324714e+08 3.3314500000e-01 -7.9250000000e-03 6.6685500000e-01 7.9250000000e-03 6.6685500000e-01 7.9250000000e-03 3.3314500000e-01 -7.9250000000e-03 
1.1557677786e+08 3.3313800000e-01 -8.0640000000e-03 6.6686200000e-01 8.0640000000e-03 6.6686200000e-01 8.0640000000e-03 3.3313800000e-01 -8.0640000000e-03 
1.1760529759e+08 3.3313100000e-01 -8.2050000000e-03 6.6686900000e-01 8.2050000000e-03 6.6686900000e-01 8.2050000000e-03 3.3313100000e-01 -8.2050000000e-03 
1.1966942043e+08 3.3312400000e-01 -8.3490000000e-03 6.6687600000e-01 8.3490000000e-03 6.6687600000e-01 8.3490000000e-03 3.3312400000e-01 -8.3490000000e-03 
1.2176977125e+08 3.3311700000e-01 -8.4960000000e-03 6.6688300000e-01 8.4960000000e-03 6.6688300000e-01 8.4960000000e-03 3.3311700000e-01 -8.4960000000e-03 
1.2390698591e+08 3.3310900000e-01 -8.6450000000e-03 6.6689100000e-01 8.6450000000e-03 6.6689100000e-01 8.6450000000e-03 3.3310900000e-01 -8.6450000000e-03 
1.2608171141e+08 3.3310100000e-01 -8.7960000000e-03 6.6689900000e-01 8.7960000000e-03 6.6689900000e-01 8.7960000000e-03 3.3310100000e-01 -8.7960000000e-03 
1.2829460611e+08 3.3309300000e-01 -8.9500000000e-03 6.6690700000e-01 8.9500000000e-03 6.6690700000e-01 8.9500000000e-03 3.3309300000e-01 -8.9500000000e-03 
1.3054633993e+08 3.3308400000e-01 -9.1070000000e-03 6.6691600000e-01 9.1070000000e-03 6.6691600000e-01 9.1070000000e-03 3.3308400000e-01 -9.1070000000e-03 
1.3283759455e+08 3.3307600000e-01 -9.2670000000e-03 6.6692400000e-01 9.2670000000e-03 6.6692400000e-01 9.2670000000e-03 3.3307600000e-01 -9.2670000000e-03 
1.3516906361e+08 3.3306600000e-01 -9.4290000000e-03 6.6693400000e-01 9.4290000000e-03 6.6693400000e-01 9.4290000000e-03 3.3306600000e-01 -9.4290000000e-03 
1.3754145292e+08 3.3305700000e-01 -9.5940000000e-03 6.6694300000e-01 9.5940000000e-03 6.6694300000e-01 9.5940000000e-03 3.3305700000e-01 -9.5940000000e-03 
1.3995548069e+08 3.3304700000e-01 -9.7620000000e-03 6.6695300000e-01 9.7620000000e-03 6.6695300000e-01 9.7620000000e-03 3.3304700000e-01 -9.7620000000e-03 
1.4241187772e+08 3.3303700000e-01 -9.9330000000e-03 6.6696300000e-01 9.9330000000e-03 6.6696300000e-01 9.9330000000e-03 3.3303700000e-01 -9.9330000000e-03 
1.4491138765e+08 3.3302700000e-01 -1.0107000000e-02 6.6697300000e-01 1.0107000000e-02 6.6697300000e-01 1.0107000000e-02 3.3302700000e-01 -1.0107000000e-02 
1.4745476717e+08 3.3301600000e-01 -1.0284000000e-02 6.6698400000e-01 1.0284000000e-02 6.6698400000e-01 1.0284000000e-02 3.3301600000e-01 -1.0284000000e-02 
1.5004278623e+08 3.3300400000e-01 -1.0465000000e-02 6.6699600000e-01 1.0465000000e-02 6.6699600000e-01 1.0465000000e-02 3.3300400000e-01 -1.0465000000e-02 
1.5267622833e+08 3.3299300000e-01 -1.0648000000e-02 6.6700700000e-01 1.0648000000e-02 6.6700700000e-01 1.0648000000e-02 3.3299300000e-01 -1.0648000000e-02 
1.5535589069e+08 3.3298100000e-01 -1.0834000000e-02 6.6701900000e-01 1.0834000000e-02 6.6701900000e-01 1.0834000000e-02 3.3298100000e-01 -1.0834000000e-02 
1.5808258454e+08 3.3296800000e-01 -1.1024000000e-02 6.6703200000e-01 1.1024000000e-02 6.6703200000e-01 1.1024000000e-02 3.3296800000e-01 -1.1024000000e-02 
1.6085713535e+08 3.3295500000e-01 -1.1217000000e-02 6.6704500000e-01 1.1217000000e-02 6.6704500000e-01 1.1217000000e-02 3.3295500000e-01 -1.1217000000e-02 
1.6368038305e+08 3.3294200000e-01 -1.1414000000e-02 6.6705800000e-01 1.1414000000e-02 6.6705800000e-01 1.1414000000e-02 3.3294200000e-01 -1.1414000000e-02 
1.6655318235e+08 3.3292800000e-01 -1.1613000000e-02 6.6707200000e-01 1.1613000000e-02 6.6707200000e-01 1.1613000000e-02 3.3292800000e-01 -1.1613000000e-02 
1.6947640294e+08 3.3291400000e-01 -1.1817000000e-02 6.6708600000e-01 1.1817000000e-02 6.6708600000e-01 1.1817000000e-02 3.3291400000e-01 -1.1817000000e-02 
1.7245092978e+08 3.3289900000e-01 -1.2024000000e-02 6.6710100000e-01 1.2024000000e-02 6.6710100000e-01 1.2024000000e-02 3.3289900000e-01 -1.2024000000e-02 
1.7547766335e+08 3.3288400000e-01 -1.2234000000e-02 6.6711600000e-01 1.2234000000e-02 6.6711600000e-01 1.2234000000e-02 3.3288400000e-01 -1.2234000000e-02 
1.7855751995e+08 3.3286800000e-01 -1.2448000000e-02 6.6713200000e-01 1.2448000000e-02 6.6713200000e-01 1.2448000000e-02 3.3286800000e-01 -1.2448000000e-02 
1.8169143196e+08 3.3285100000e-01 -1.2666000000e-02 6.6714900000e-01 1.2666000000e-02 6.6714900000e-01 1.2666000000e-02 3.3285100000e-01 -1.2666000000e-02 
1.8488034812e+08 3.3283400000e-01 -1.2888000000e-02 6.6716600000e-01 1.2888000000e-02 6.6716600000e-01 1.2888000000e-02 3.3283400000e-01 -1.2888000000e-02 
1.8812523382e+08 3.3281700000e-01 -1.3113000000e-02 6.6718300000e-01 1.3113000000e-02 6.6718300000e-01 1.3113000000e-02 3.3281700000e-01 -1.3113000000e-02 
1.9142707141e+08 3.3279800000e-01 -1.3343000000e-02 6.6720200000e-01 1.3343000000e-02 6.6720200000e-01 1.3343000000e-02 3.3279800000e-01 -1.3343000000e-02 
1.9478686044e+08 3.3277900000e-01 -1.3576000000e-02 6.6722100000e-01 1.3576000000e-02 6.6722100000e-01 1.3576000000e-02 3.3277900000e-01 -1.3576000000e-02 
1.9820561806e+08 3.3276000000e-01 -1.3814000000e-02 6.6724000000e-01 1.3814000000e-02 6.6724000000e-01 1.3814000000e-02 3.3276000000e-01 -1.3814000000e-02 
2.0168437923e+08 3.3274000000e-01 -1.4055000000e-02 6.6726000000e-01 1.4055000000e-02 6.6726000000e-01 1.4055000000e-02 3.3274000000e-01 -1.4055000000e-02 
2.0522419709e+08 3.3271900000e-01 -1.4301000000e-02 6.6728100000e-01 1.4301000000e-02 6.6728100000e-01 1.4301000000e-02 3.3271900000e-01 -1.4301000000e-02 
2.0882614327e+08 3.3269700000e-01 -1.4551000000e-02 6.6730300000e-01 1.4551000000e-02 6.6730300000e-01 1.4551000000e-02 3.3269700000e-01 -1.4551000000e-02 
2.1249130819e+08 3.3267400000e-01 -1.4805000000e-02 6.6732600000e-01 1.4805000000e-02 6.6732600000e-01 1.4805000000e-02 3.3267400000e-01 -1.4805000000e-02 
2.1622080143e+08 3.3265100000e-01 -1.5064000000e-02 6.6734900000e-01 1.5064000000e-02 6.6734900000e-01 1.5064000000e-02 3.3265100000e-01 -1.5064000000e-02 
2.2001575202e+08 3.3262700000e-01 -1.5327000000e-02 6.6737300000e-01 1.5327000000e-02 6.6737300000e-01 1.5327000000e-02 3.3262700000e-01 -1.5327000000e-02 
2.2387730884e+08 3.3260200000e-01 -1.5595000000e-02 6.6739800000e-01 1.5595000000e-02 6.6739800000e-01 1.5595000000e-02 3.3260200000e-01 -1.5595000000e-02 
2.2780664089e+08 3.3257600000e-01 -1.5868000000e-02 6.6742400000e-01 1.5868000000e-02 6.6742400000e-01 1.5868000000e-02 3.3257600000e-01 -1.5868000000e-02 
2.3180493773e+08 3.3255000000e-01 -1.6145000000e-02 6.6745000000e-01 1.6145000000e-02 6.6745000000e-01 1.6145000000e-02 3.3255000000e-01 -1.6145000000e-02 
2.3587340978e+08 3.3252200000e-01 -1.6427000000e-02 6.6747800000e-01 1.6427000000e-02 6.6747800000e-01 1.6427000000e-02 3.3252200000e-01 -1.6427000000e-02 
2.4001328870e+08 3.3249300000e-01 -1.6714000000e-02 6.6750700000e-01 1.6714000000e-02 6.6750700000e-01 1.6714000000e-02 3.3249300000e-01 -1.6714000000e-02 
2.4422582776e+08 3.3246300000e-01 -1.7006000000e-02 6.6753700000e-01 1.7006000000e-02 6.6753700000e-01 1.7006000000e-02 3.3246300000e-01 -1.7006000000e-02 
2.4851230225e+08 3.3243300000e-01 -1.7303000000e-02 6.6756700000e-01 1.7303000000e-02 6.6756700000e-01 1.7303000000e-02 3.3243300000e-01 -1.7303000000e-02 
2.5287400984e+08 3.3240100000e-01 -1.7605000000e-02 6.6759900000e-01 1.7605000000e-02 6.6759900000e-01 1.7605000000e-02 3.3240100000e-01 -1.7605000000e-02 
2.5731227095e+08 3.3236800000e-01 -1.7912000000e-02 6.6763200000e-01 1.7912000000e-02 6.6763200000e-01 1.7912000000e-02 3.3236800000e-01 -1.7912000000e-02 
2.6182842920e+08 3.3233400000e-01 -1.8224000000e-02 6.6766600000e-01 1.8224000000e-02 6.6766600000e-01 1.8224000000e-02 3.3233400000e-01 -1.8224000000e-02 
2.6642385178e+08 3.3229900000e-01 -1.8542000000e-02 6.6770100000e-01 1.8542000000e-02 6.6770100000e-01 1.8542000000e-02 3.3229900000e-01 -1.8542000000e-02 
2.7109992988e+08 3.3226200000e-01 -1.8866000000e-02 6.6773800000e-01 1.8866000000e-02 6.6773800000e-01 1.8866000000e-02 3.3226200000e-01 -1.8866000000e-02 
2.7585807911e+08 3.3222400000e-01 -1.9194000000e-02 6.6777600000e-01 1.9194000000e-02 6.6777600000e-01 1.9194000000e-02 3.3222400000e-01 -1.9194000000e-02 
2.8069973992e+08 3.3218500000e-01 -1.9529000000e-02 6.6781500000e-01 1.9529000000e-02 6.6781500000e-01 1.9529000000e-02 3.3218500000e-01 -1.9529000000e-02 
2.8562637805e+08 3.3214500000e-01 -1.9869000000e-02 6.6785500000e-01 1.9869000000e-02 6.6785500000e-01 1.9869000000e-02 3.3214500000e-01 -1.9869000000e-02 
2.9063948496e+08 3.3210300000e-01 -2.0216000000e-02 6.6789700000e-01 2.0216000000e-02 6.6789700000e-01 2.0216000000e-02 3.3210300000e-01 -2.0216000000e-02 
2.9574057829e+08 3.3205900000e-01 -2.0568000000e-02 6.6794100000e-01 2.0568000000e-02 6.6794100000e-01 2.0568000000e-02 3.3205900000e-01 -2.0568000000e-02 
3.0093120230e+08 3.3201400000e-01 -2.0926000000e-02 6.6798600000e-01 2.0926000000e-02 6.6798600000e-01 2.0926000000e-02 3.3201400000e-01 -2.0926000000e-02 
3.0621292837e+08 3.3196800000e-01 -2.1290000000e-02 6.6803200000e-01 2.1290000000e-02 6.6803200000e-01 2.1290000000e-02 3.3196800000e-01 -2.1290000000e-02 
3.1158735547e+08 3.3192000000e-01 -2.1661000000e-02 6.6808000000e-01 2.1661000000e-02 6.6808000000e-01 2.1661000000e-02 3.3192000000e-01 -2.1661000000e-02 
3.1705611062e+08 3.3187000000e-01 -2.2038000000e-02 6.6813000000e-01 2.2038000000e-02 6.6813000000e-01 2.2038000000e-02 3.3187000000e-01 -2.2038000000e-02 
3.2262084938e+08 3.3181800000e-01 -2.2421000000e-02 6.6818200000e-01 2.2421000000e-02 6.6818200000e-01 2.2421000000e-02 3.3181800000e-01 -2.2421000000e-02 
3.2828325640e+08 3.3176500000e-01 -2.2811000000e-02 6.6823500000e-01 2.2811000000e-02 6.6823500000e-01 2.2811000000e-02 3.3176500000e-01 -2.2811000000e-02 
3.3404504589e+08 3.3171000000e-01 -2.3207000000e-02 6.6829000000e-01 2.3207000000e-02 6.6829000000e-01 2.3207000000e-02 3.3171000000e-01 -2.3207000000e-02 
3.3990796211e+08 3.3165300000e-01 -2.3610000000e-02 6.6834700000e-01 2.3610000000e-02 6.6834700000e-01 2.3610000000e-02 3.3165300000e-01 -2.3610000000e-02 
3.4587377999e+08 3.3159300000e-01 -2.4020000000e-02 6.6840700000e-01 2.4020000000e-02 6.6840700000e-01 2.4020000000e-02 3.3159300000e-01 -2.4020000000e-02 
3.5194430558e+08 3.3153200000e-01 -2.4438000000e-02 6.6846800000e-01 2.4438000000e-02 6.6846800000e-01 2.4438000000e-02 3.3153200000e-01 -2.4438000000e-02 
3.5812137662e+08 3.3146900000e-01 -2.4862000000e-02 6.6853100000e-01 2.4862000000e-02 6.6853100000e-01 2.4862000000e-02 3.3146900000e-01 -2.4862000000e-02 
3.6440686314e+08 3.3140300000e-01 -2.5293000000e-02 6.6859700000e-01 2.5293000000e-02 6.6859700000e-01 2.5293000000e-02 3.3140300000e-01 -2.5293000000e-02 
3.7080266795e+08 3.3133500000e-01 -2.5732000000e-02 6.6866500000e-01 2.5732000000e-02 6.6866500000e-01 2.5732000000e-02 3.3133500000e-01 -2.5732000000e-02 
3.7731072729e+08 3.3126500000e-01 -2.6178000000e-02 6.6873500000e-01 2.6178000000e-02 6.6873500000e-01 2.6178000000e-02 3.3126500000e-01 -2.6178000000e-02 
3.8393301136e+08 3.3119200000e-01 -2.6631000000e-02 6.6880800000e-01 2.6631000000e-02 6.6880800000e-01 2.6631000000e-02 3.3119200000e-01 -2.6631000000e-02 
3.9067152495e+08 3.3111700000e-01 -2.7093000000e-02 6.6888300000e-01 2.7093000000e-02 6.6888300000e-01 2.7093000000e-02 3.3111700000e-01 -2.7093000000e-02 
3.9752830805e+08 3.3103900000e-01 -2.7562000000e-02 6.6896100000e-01 2.7562000000e-02 6.6896100000e-01 2.7562000000e-02 3.3103900000e-01 -2.7562000000e-02 
4.0450543642e+08 3.3095800000e-01 -2.8039000000e-02 6.6904200000e-01 2.8039000000e-02 6.6904200000e-01 2.8039000000e-02 3.3095800000e-01 -2.8039000000e-02 
4.1160502229e+08 3.3087400000e-01 -2.8523000000e-02 6.6912600000e-01 2.8523000000e-02 6.6912600000e-01 2.8523000000e-02 3.3087400000e-01 -2.8523000000e-02 
4.1882921494e+08 3.3078800000e-01 -2.9017000000e-02 6.6921200000e-01 2.9017000000e-02 6.6921200000e-01 2.9017000000e-02 3.3078800000e-01 -2.9017000000e-02 
4.2618020138e+08 3.3069900000e-01 -2.9518000000e-02 6.6930100000e-01 2.9518000000e-02 6.6930100000e-01 2.9518000000e-02 3.3069900000e-01 -2.9518000000e-02 
4.3366020699e+08 3.3060600000e-01 -3.0027000000e-02 6.6939400000e-01 3.0027000000e-02 6.6939400000e-01 3.0027000000e-02 3.3060600000e-01 -3.0027000000e-02 
4.4127149624e+08 3.3051000000e-01 -3.0546000000e-02 6.6949000000e-01 3.0546000000e-02 6.6949000000e-01 3.0546000000e-02 3.3051000000e-01 -3.0546000000e-02 
4.4901637331e+08 3.3041100000e-01 -3.1072000000e-02 6.6958900000e-01 3.1072000000e-02 6.6958900000e-01 3.1072000000e-02 3.3041100000e-01 -3.1072000000e-02 
4.5689718284e+08 3.3030900000e-01 -3.1608000000e-02 6.6969100000e-01 3.1608000000e-02 6.6969100000e-01 3.1608000000e-02 3.3030900000e-01 -3.1608000000e-02 
4.6491631062e+08 3.3020300000e-01 -3.2152000000e-02 6.6979700000e-01 3.2152000000e-02 6.6979700000e-01 3.2152000000e-02 3.3020300000e-01 -3.2152000000e-02 
4.7307618432e+08 3.3009300000e-01 -3.2706000000e-02 6.6990700000e-01 3.2706000000e-02 6.6990700000e-01 3.2706000000e-02 3.3009300000e-01 -3.2706000000e-02 
4.8137927419e+08 3.2997900000e-01 -3.3268000000e-02 6.7002100000e-01 3.3268000000e-02 6.7002100000e-01 3.3268000000e-02 3.2997900000e-01 -3.3268000000e-02 
4.8982809388e+08 3.2986200000e-01 -3.3840000000e-02 6.7013800000e-01 3.3840000000e-02 6.7013800000e-01 3.3840000000e-02 3.2986200000e-01 -3.3840000000e-02 
4.9842520111e+08 3.2974000000e-01 -3.4422000000e-02 6.7026000000e-01 3.4422000000e-02 6.7026000000e-01 3.4422000000e-02 3.2974000000e-01 -3.4422000000e-02 
5.0717319853e+08 3.2961400000e-01 -3.5012000000e-02 6.7038600000e-01 3.5012000000e-02 6.7038600000e-01 3.5012000000e-02 3.2961400000e-01 -3.5012000000e-02 
5.1607473446e+08 3.2948400000e-01 -3.5613000000e-02 6.7051600000e-01 3.5613000000e-02 6.7051600000e-01 3.5613000000e-02 3.2948400000e-01 -3.5613000000e-02 
5.2513250368e+08 3.2934900000e-01 -3.6223000000e-02 6.7065100000e-01 3.6223000000e-02 6.7065100000e-01 3.6223000000e-02 3.2934900000e-01 -3.6223000000e-02 
5.3434924830e+08 3.2921000000e-01 -3.6843000000e-02 6.7079000000e-01 3.6843000000e-02 6.7079000000e-01 3.6843000000e-02 3.2921000000e-01 -3.6843000000e-02 
5.4372775852e+08 3.2906600000e-01 -3.7473000000e-02 6.7093400000e-01 3.7473000000e-02 6.7093400000e-01 3.7473000000e-02 3.2906600000e-01 -3.7473000000e-02 
5.5327087356e+08 3.2891700000e-01 -3.8114000000e-02 6.7108300000e-01 3.8114000000e-02 6.7108300000e-01 3.8114000000e-02 3.2891700000e-01 -3.8114000000e-02 
5.6298148242e+08 3.2876300000e-01 -3.8765000000e-02 6.7123700000e-01 3.8765000000e-02 6.7123700000e-01 3.8765000000e-02 3.2876300000e-01 -3.8765000000e-02 
5.7286252485e+08 3.2860300000e-01 -3.9426000000e-02 6.7139700000e-01 3.9426000000e-02 6.7139700000e-01 3.9426000000e-02 3.2860300000e-01 -3.9426000000e-02 
5.8291699215e+08 3.2843800000e-01 -4.0098000000e-02 6.7156200000e-01 4.0098000000e-02 6.7156200000e-01 4.0098000000e-02 3.2843800000e-01 -4.0098000000e-02 
5.9314792818e+08 3.2826700000e-01 -4.0780000000e-02 6.7173300000e-01 4.0780000000e-02 6.7173300000e-01 4.0780000000e-02 3.2826700000e-01 -4.0780000000e-02 
6.0355843016e+08 3.2809100000e-01 -4.1474000000e-02 6.7190900000e-01 4.1474000000e-02 6.7190900000e-01 4.1474000000e-02 3.2809100000e-01 -4.1474000000e-02 
6.1415164973e+08 3.2790800000e-01 -4.2178000000e-02 6.7209200000e-01 4.2178000000e-02 6.7209200000e-01 4.2178000000e-02 3.2790800000e-01 -4.2178000000e-02 
6.2493079379e+08 3.2771900000e-01 -4.2894000000e-02 6.7228100000e-01 4.2894000000e-02 6.7228100000e-01 4.2894000000e-02 3.2771900000e-01 -4.2894000000e-02 
6.3589912557e+08 3.2752400000e-01 -4.3620000000e-02 6.7247600000e-01 4.3620000000e-02 6.7247600000e-01 4.3620000000e-02 3.2752400000e-01 -4.3620000000e-02 
6.4705996555e+08 3.2732200000e-01 -4.4359000000e-02 6.7267800000e-01 4.4359000000e-02 6.7267800000e-01 4.4359000000e-02 3.2732200000e-01 -4.4359000000e-02 
6.5841669250e+08 3.2711300000e-01 -4.5108000000e-02 6.7288700000e-01 4.5108000000e-02 6.7288700000e-01 4.5108000000e-02 3.2711300000e-01 -4.5108000000e-02 
6.6997274447e+08 3.2689700000e-01 -4.5870000000e-02 6.7310300000e-01 4.5870000000e-02 6.7310300000e-01 4.5870000000e-02 3.2689700000e-01 -4.5870000000e-02 
6.8173161988e+08 3.2667400000e-01 -4.6643000000e-02 6.7332600000e-01 4.6643000000e-02 6.7332600000e-01 4.6643000000e-02 3.2667400000e-01 -4.6643000000e-02 
6.9369687854e+08 3.2644300000e-01 -4.7428000000e-02 6.7355700000e-01 4.7428000000e-02 6.7355700000e-01 4.7428000000e-02 3.2644300000e-01 -4.7428000000e-02 
7.0587214273e+08 3.2620400000e-01 -4.8225000000e-02 6.7379600000e-01 4.8225000000e-02 6.7379600000e-01 4.8225000000e-02 3.2620400000e-01 -4.8225000000e-02 
7.1826109833e+08 3.2595700000e-01 -4.9034000000e-02 6.7404300000e-01 4.9034000000e-02 6.7404300000e-01 4.9034000000e-02 3.2595700000e-01 -4.9034000000e-02 
7.3086749589e+08 3.2570200000e-01 -4.9856000000e-02 6.7429800000e-01 4.9856000000e-02 6.7429800000e-01 4.9856000000e-02 3.2570200000e-01 -4.9856000000e-02 
7.4369515178e+08 3.2543800000e-01 -5.0690000000e-02 6.7456200000e-01 5.0690000000e-02 6.7456200000e-01 5.0690000000e-02 3.2543800000e-01 -5.0690000000e-02 
7.5674794939e+08 3.2516500000e-01 -5.1536000000e-02 6.7483500000e-01 5.1536000000e-02 6.7483500000e-01 5.1536000000e-02 3.2516500000e-01 -5.1536000000e-02 
7.7002984022e+08 3.2488300000e-01 -5.2395000000e-02 6.7511700000e-01 5.2395000000e-02 6.7511700000e-01 5.2395000000e-02 3.2488300000e-01 -5.2395000000e-02 
7.8354484517e+08 3.2459200000e-01 -5.3267000000e-02 6.7540800000e-01 5.3267000000e-02 6.7540800000e-01 5.3267000000e-02 3.2459200000e-01 -5.3267000000e-02 
7.9729705567e+08 3.2429100000e-01 -5.4152000000e-02 6.7570900000e-01 5.4152000000e-02 6.7570900000e-01 5.4152000000e-02 3.2429100000e-01 -5.4152000000e-02 
8.1129063499e+08 3.2398000000e-01 -5.5049000000e-02 6.7602000000e-01 5.5049000000e-02 6.7602000000e-01 5.5049000000e-02 3.2398000000e-01 -5.5049000000e-02 
8.2552981946e+08 3.2365800000e-01 -5.5960000000e-02 6.7634200000e-01 5.5960000000e-02 6.7634200000e-01 5.5960000000e-02 3.2365800000e-01 -5.5960000000e-02 
8.4001891977e+08 3.2332600000e-01 -5.6884000000e-02 6.7667400000e-01 5.6884000000e-02 6.7667400000e-01 5.6884000000e-02 3.2332600000e-01 -5.6884000000e-02 
8.5476232224e+08 3.2298200000e-01 -5.7821000000e-02 6.7701800000e-01 5.7821000000e-02 6.7701800000e-01 5.7821000000e-02 3.2298200000e-01 -5.7821000000e-02 
8.6976449022e+08 3.2262700000e-01 -5.8771000000e-02 6.7737300000e-01 5.8771000000e-02 6.7737300000e-01 5.8771000000e-02 3.2262700000e-01 -5.8771000000e-02 
8.8502996536e+08 3.2226100000e-01 -5.9734000000e-02 6.7773900000e-01 5.9734000000e-02 6.7773900000e-01 5.9734000000e-02 3.2226100000e-01 -5.9734000000e-02 
9.0056336905e+08 3.2188200000e-01 -6.0711000000e-02 6.7811800000e-01 6.0711000000e-02 6.7811800000e-01 6.0711000000e-02 3.2188200000e-01 -6.0711000000e-02 
9.1636940376e+08 3.2149100000e-01 -6.1702000000e-02 6.7850900000e-01 6.1702000000e-02 6.7850900000e-01 6.1702000000e-02 3.2149100000e-01 -6.1702000000e-02 
9.3245285453e+08 3.2108700000e-01 -6.2706000000e-02 6.7891300000e-01 6.2706000000e-02 6.7891300000e-01 6.2706000000e-02 3.2108700000e-01 -6.2706000000e-02 
9.4881859035e+08 3.2067000000e-01 -6.3724000000e-02 6.7933000000e-01 6.3724000000e-02 6.7933000000e-01 6.3724000000e-02 3.2067000000e-01 -6.3724000000e-02 
9.6547156569e+08 3.2023900000e-01 -6.4755000000e-02 6.7976100000e-01 6.4755000000e-02 6.7976100000e-01 6.4755000000e-02 3.2023900000e-01 -6.4755000000e-02 
9.8241682197e+08 3.1979500000e-01 -6.5800000000e-02 6.8020500000e-01 6.5800000000e-02 6.8020500000e-01 6.5800000000e-02 3.1979500000e-01 -6.5800000000e-02 
9.9965948908e+08 3.1933500000e-01 -6.6859000000e-02 6.8066500000e-01 6.6859000000e-02 6.8066500000e-01 6.6859000000e-02 3.1933500000e-01 -6.6859000000e-02 
1.0172047870e+09 3.1886100000e-01 -6.7931000000e-02 6.8113900000e-01 6.7931000000e-02 6.8113900000e-01 6.7931000000e-02 3.1886100000e-01 -6.7931000000e-02 
1.0350580272e+09 3.1837200000e-01 -6.9017000000e-02 6.8162800000e-01 6.9017000000e-02 6.8162800000e-01 6.9017000000e-02 3.1837200000e-01 -6.9017000000e-02 
1.0532246146e+09 3.1786600000e-01 -7.0117000000e-02 6.8213400000e-01 7.0117000000e-02 6.8213400000e-01 7.0117000000e-02 3.1786600000e-01 -7.0117000000e-02 
1.0717100487e+09 3.1734500000e-01 -7.1231000000e-02 6.8265500000e-01 7.1231000000e-02 6.8265500000e-01 7.1231000000e-02 3.1734500000e-01 -7.1231000000e-02 
1.0905199257e+09 3.1680700000e-01 -7.2358000000e-02 6.8319300000e-01 7.2358000000e-02 6.8319300000e-01 7.2358000000e-02 3.1680700000e-01 -7.2358000000e-02 
1.1096599401e+09 3.1625200000e-01 -7.3499000000e-02 6.8374800000e-01 7.3499000000e-02 6.8374800000e-01 7.3499000000e-02 3.1625200000e-01 -7.3499000000e-02 
1.1291358860e+09 3.1567900000e-01 -7.4654000000e-02 6.8432100000e-01 7.4654000000e-02 6.8432100000e-01 7.4654000000e-02 3.1567900000e-01 -7.4654000000e-02 
1.1489536597e+09 3.1508800000e-01 -7.5822000000e-02 6.8491200000e-01 7.5822000000e-02 6.8491200000e-01 7.5822000000e-02 3.1508800000e-01 -7.5822000000e-02 
1.1691192605e+09 3.1447800000e-01 -7.7003000000e-02 6.8552200000e-01 7.7003000000e-02 6.8552200000e-01 7.7003000000e-02 3.1447800000e-01 -7.7003000000e-02 
1.1896387934e+09 3.1385000000e-01 -7.8198000000e-02 6.8615000000e-01 7.8198000000e-02 6.8615000000e-01 7.8198000000e-02 3.1385000000e-01 -7.8198000000e-02 
1.2105184701e+09 3.1320100000e-01 -7.9406000000e-02 6.8679900000e-01 7.9406000000e-02 6.8679900000e-01 7.9406000000e-02 3.1320100000e-01 -7.9406000000e-02 
1.2317646119e+09 3.1253300000e-01 -8.0627000000e-02 6.8746700000e-01 8.0627000000e-02 6.8746700000e-01 8.0627000000e-02 3.1253300000e-01 -8.0627000000e-02 
1.2533836504e+09 3.1184400000e-01 -8.1862000000e-02 6.8815600000e-01 8.1862000000e-02 6.8815600000e-01 8.1862000000e-02 3.1184400000e-01 -8.1862000000e-02 
1.2753821307e+09 3.1113400000e-01 -8.3109000000e-02 6.8886600000e-01 8.3109000000e-02 6.8886600000e-01 8.3109000000e-02 3.1113400000e-01 -8.3109000000e-02 
1.2977667123e+09 3.1040200000e-01 -8.4368000000e-02 6.8959800000e-01 8.4368000000e-02 6.8959800000e-01 8.4368000000e-02 3.1040200000e-01 -8.4368000000e-02 
1.3205441718e+09 3.0964700000e-01 -8.5640000000e-02 6.9035300000e-01 8.5640000000e-02 6.9035300000e-01 8.5640000000e-02 3.0964700000e-01 -8.5640000000e-02 
1.3437214048e+09 3.0887000000e-01 -8.6925000000e-02 6.9113000000e-01 8.6925000000e-02 6.9113000000e-01 8.6925000000e-02 3.0887000000e-01 -8.6925000000e-02 
1.3673054278e+09 3.0807000000e-01 -8.8221000000e-02 6.9193000000e-01 8.8221000000e-02 6.9193000000e-01 8.8221000000e-02 3.0807000000e-01 -8.8221000000e-02 
1.3913033804e+09 3.0724500000e-01 -8.9529000000e-02 6.9275500000e-01 8.9529000000e-02 6.9275500000e-01 8.9529000000e-02 3.0724500000e-01 -8.9529000000e-02 
1.4157225277e+09 3.0639600000e-01 -9.0849000000e-02 6.9360400000e-01 9.0849000000e-02 6.9360400000e-01 9.0849000000e-02 3.0639600000e-01 -9.0849000000e-02 
1.4405702621e+09 3.0552200000e-01 -9.2180000000e-02 6.9447800000e-01 9.2180000000e-02 6.9447800000e-01 9.2180000000e-02 3.0552200000e-01 -9.2180000000e-02 
1.4658541059e+09 3.0462200000e-01 -9.3521000000e-02 6.9537800000e-01 9.3521000000e-02 6.9537800000e-01 9.3521000000e-02 3.0462200000e-01 -9.3521000000e-02 
1.4915817134e+09 3.0369500000e-01 -9.4873000000e-02 6.9630500000e-01 9.4873000000e-02 6.9630500000e-01 9.4873000000e-02 3.0369500000e-01 -9.4873000000e-02 
1.5177608732e+09 3.0274200000e-01 -9.6235000000e-02 6.9725800000e-01 9.6235000000e-02 6.9725800000e-01 9.6235000000e-02 3.0274200000e-01 -9.6235000000e-02 
1.5443995106e+09 3.0176100000e-01 -9.7607000000e-02 6.9823900000e-01 9.7607000000e-02 6.9823900000e-01 9.7607000000e-02 3.0176100000e-01 -9.7607000000e-02 
1.5715056900e+09 3.0075300000e-01 -9.8988000000e-02 6.9924700000e-01 9.8988000000e-02 6.9924700000e-01 9.8988000000e-02 3.0075300000e-01 -9.8988000000e-02 
1.5990876174e+09 2.9971500000e-01 -1.0037800000e-01 7.0028500000e-01 1.0037800000e-01 7.0028500000e-01 1.0037800000e-01 2.9971500000e-01 -1.0037800000e-01 
1.6271536428e+09 2.9864900000e-01 -1.0177700000e-01 7.0135100000e-01 1.0177700000e-01 7.0135100000e-01 1.0177700000e-01 2.9864900000e-01 -1.0177700000e-01 
1.6557122628e+09 2.9755200000e-01 -1.0318300000e-01 7.0244800000e-01 1.0318300000e-01 7.0244800000e-01 1.0318300000e-01 2.9755200000e-01 -1.0318300000e-01 
1.6847721228e+09 2.9642600000e-01 -1.0459600000e-01 7.0357400000e-01 1.0459600000e-01 7.0357400000e-01 1.0459600000e-01 2.9642600000e-01 -1.0459600000e-01 
1.7143420205e+09 2.9526800000e-01 -1.0601600000e-01 7.0473200000e-01 1.0601600000e-01 7.0473200000e-01 1.0601600000e-01 2.9526800000e-01 -1.0601600000e-01 
1.7444309075e+09 2.9407900000e-01 -1.0744300000e-01 7.0592100000e-01 1.0744300000e-01 7.0592100000e-01 1.0744300000e-01 2.9407900000e-01 -1.0744300000e-01 
1.7750478929e+09 2.9285800000e-01 -1.0887400000e-01 7.0714200000e-01 1.0887400000e-01 7.0714200000e-01 1.0887400000e-01 2.9285800000e-01 -1.0887400000e-01 
1.8062022454e+09 2.9160400000e-01 -1.1031100000e-01 7.0839600000e-01 1.1031100000e-01 7.0839600000e-01 1.1031100000e-01 2.9160400000e-01 -1.1031100000e-01 
1.8379033964e+09 2.9031700000e-01 -1.1175200000e-01 7.0968300000e-01 1.1175200000e-01 7.0968300000e-01 1.1175200000e-01 2.9031700000e-01 -1.1175200000e-01 
1.8701609431e+09 2.8899600000e-01 -1.1319600000e-01 7.1100400000e-01 1.1319600000e-01 7.1100400000e-01 1.1319600000e-01 2.8899600000e-01 -1.1319600000e-01 
1.9029846507e+09 2.8764100000e-01 -1.1464200000e-01 7.1235900000e-01 1.1464200000e-01 7.1235900000e-01 1.1464200000e-01 2.8764100000e-01 -1.1464200000e-01 
1.9363844563e+09 2.8625200000e-01 -1.1609100000e-01 7.1374800000e-01 1.1609100000e-01 7.1374800000e-01 1.1609100000e-01 2.8625200000e-01 -1.1609100000e-01 
1.9703704711e+09 2.8482700000e-01 -1.1754100000e-01 7.1517300000e-01 1.1754100000e-01 7.1517300000e-01 1.1754100000e-01 2.8482700000e-01 -1.1754100000e-01 
2.0049529837e+09 2.8336700000e-01 -1.1899100000e-01 7.1663300000e-01 1.1899100000e-01 7.1663300000e-01 1.1899100000e-01 2.8336700000e-01 -1.1899100000e-01 
2.0401424635e+09 2.8187100000e-01 -1.2044000000e-01 7.1812900000e-01 1.2044000000e-01 7.1812900000e-01 1.2044000000e-01 2.8187100000e-01 -1.2044000000e-01 
2.0759495635e+09 2.8033800000e-01 -1.2188700000e-01 7.1966200000e-01 1.2188700000e-01 7.1966200000e-01 1.2188700000e-01 2.8033800000e-01 -1.2188700000e-01 
2.1123851237e+09 2.7876900000e-01 -1.2333200000e-01 7.2123100000e-01 1.2333200000e-01 7.2123100000e-01 1.2333200000e-01 2.7876900000e-01 -1.2333200000e-01 
2.1494601744e+09 2.7716300000e-01 -1.2477400000e-01 7.2283700000e-01 1.2477400000e-01 7.2283700000e-01 1.2477400000e-01 2.7716300000e-01 -1.2477400000e-01 
2.1871859395e+09 2.7551800000e-01 -1.2621000000e-01 7.2448200000e-01 1.2621000000e-01 7.2448200000e-01 1.2621000000e-01 2.7551800000e-01 -1.2621000000e-01 
2.2255738399e+09 2.7383700000e-01 -1.2764200000e-01 7.2616300000e-01 1.2764200000e-01 7.2616300000e-01 1.2764200000e-01 2.7383700000e-01 -1.2764200000e-01 
2.2646354968e+09 2.7211700000e-01 -1.2906600000e-01 7.2788300000e-01 1.2906600000e-01 7.2788300000e-01 1.2906600000e-01 2.7211700000e-01 -1.2906600000e-01 
2.3043827356e+09 2.7035900000e-01 -1.3048300000e-01 7.2964100000e-01 1.3048300000e-01 7.2964100000e-01 1.3048300000e-01 2.7035900000e-01 -1.3048300000e-01 
2.3448275891e+09 2.6856200000e-01 -1.3189100000e-01 7.3143800000e-01 1.3189100000e-01 7.3143800000e-01 1.3189100000e-01 2.6856200000e-01 -1.3189100000e-01 
2.3859823013e+09 2.6672700000e-01 -1.3328800000e-01 7.3327300000e-01 1.3328800000e-01 7.3327300000e-01 1.3328800000e-01 2.6672700000e-01 -1.3328800000e-01 
2.4278593311e+09 2.6485300000e-01 -1.3467500000e-01 7.3514700000e-01 1.3467500000e-01 7.3514700000e-01 1.3467500000e-01 2.6485300000e-01 -1.3467500000e-01 
2.4704713562e+09 2.6294000000e-01 -1.3604900000e-01 7.3706000000e-01 1.3604900000e-01 7.3706000000e-01 1.3604900000e-01 2.6294000000e-01 -1.3604900000e-01 
2.5138312766e+09 2.6098800000e-01 -1.3740900000e-01 7.3901200000e-01 1.3740900000e-01 7.3901200000e-01 1.3740900000e-01 2.6098800000e-01 -1.3740900000e-01 
2.5579522189e+09 2.5899800000e-01 -1.3875400000e-01 7.4100200000e-01 1.3875400000e-01 7.4100200000e-01 1.3875400000e-01 2.5899800000e-01 -1.3875400000e-01 
2.6028475400e+09 2.5696800000e-01 -1.4008300000e-01 7.4303200000e-01 1.4008300000e-01 7.4303200000e-01 1.4008300000e-01 2.5696800000e-01 -1.4008300000e-01 
2.6485308311e+09 2.5490000000e-01 -1.4139500000e-01 7.4510000000e-01 1.4139500000e-01 7.4510000000e-01 1.4139500000e-01 2.5490000000e-01 -1.4139500000e-01 
2.6950159222e+09 2.5279400000e-01 -1.4268800000e-01 7.4720600000e-01 1.4268800000e-01 7.4720600000e-01 1.4268800000e-01 2.5279400000e-01 -1.4268800000e-01 
2.7423168859e+09 2.5065000000e-01 -1.4396100000e-01 7.4935000000e-01 1.4396100000e-01 7.4935000000e-01 1.4396100000e-01 2.5065000000e-01 -1.4396100000e-01 
2.7904480418e+09 2.4846700000e-01 -1.4521200000e-01 7.5153300000e-01 1.4521200000e-01 7.5153300000e-01 1.4521200000e-01 2.4846700000e-01 -1.4521200000e-01 
2.8394239608e+09 2.4624700000e-01 -1.4644000000e-01 7.5375300000e-01 1.4644000000e-01 7.5375300000e-01 1.4644000000e-01 2.4624700000e-01 -1.4644000000e-01 
2.8892594695e+09 2.4399000000e-01 -1.4764400000e-01 7.5601000000e-01 1.4764400000e-01 7.5601000000e-01 1.4764400000e-01 2.4399000000e-01 -1.4764400000e-01 
2.9399696550e+09 2.4169600000e-01 -1.4882300000e-01 7.5830400000e-01 1.4882300000e-01 7.5830400000e-01 1.4882300000e-01 2.4169600000e-01 -1.4882300000e-01 
2.9915698689e+09 2.3936600000e-01 -1.4997500000e-01 7.6063400000e-01 1.4997500000e-01 7.6063400000e-01 1.4997500000e-01 2.3936600000e-01 -1.4997500000e-01 
3.0440757322e+09 2.3700000000e-01 -1.5109900000e-01 7.6300000000e-01 1.5109900000e-01 7.6300000000e-01 1.5109900000e-01 2.3700000000e-01 -1.5109900000e-01 
3.0975031404e+09 2.3459900000e-01 -1.5219400000e-01 7.6540100000e-01 1.5219400000e-01 7.6540100000e-01 1.5219400000e-01 2.3459900000e-01 -1.5219400000e-01 
3.1518682676e+09 2.3216400000e-01 -1.5325800000e-01 7.6783600000e-01 1.5325800000e-01 7.6783600000e-01 1.5325800000e-01 2.3216400000e-01 -1.5325800000e-01 
3.2071875722e+09 2.2969500000e-01 -1.5428900000e-01 7.7030500000e-01 1.5428900000e-01 7.7030500000e-01 1.5428900000e-01 2.2969500000e-01 -1.5428900000e-01 
3.2634778010e+09 2.2719400000e-01 -1.5528700000e-01 7.7280600000e-01 1.5528700000e-01 7.7280600000e-01 1.5528700000e-01 2.2719400000e-01 -1.5528700000e-01 
3.3207559950e+09 2.2466100000e-01 -1.5625100000e-01 7.7533900000e-01 1.5625100000e-01 7.7533900000e-01 1.5625100000e-01 2.2466100000e-01 -1.5625100000e-01 
3.3790394944e+09 2.2209700000e-01 -1.5717900000e-01 7.7790300000e-01 1.5717900000e-01 7.7790300000e-01 1.5717900000e-01 2.2209700000e-01 -1.5717900000e-01 
3.4383459434e+09 2.1950300000e-01 -1.5807000000e-01 7.8049700000e-01 1.5807000000e-01 7.8049700000e-01 1.5807000000e-01 2.1950300000e-01 -1.5807000000e-01 
3.4986932962e+09 2.1688100000e-01 -1.5892200000e-01 7.8311900000e-01 1.5892200000e-01 7.8311900000e-01 1.5892200000e-01 2.1688100000e-01 -1.5892200000e-01 
3.5600998219e+09 2.1423000000e-01 -1.5973600000e-01 7.8577000000e-01 1.5973600000e-01 7.8577000000e-01 1.5973600000e-01 2.1423000000e-01 -1.5973600000e-01 
3.6225841104e+09 2.1155400000e-01 -1.6050800000e-01 7.8844600000e-01 1.6050800000e-01 7.8844600000e-01 1.6050800000e-01 2.1155400000e-01 -1.6050800000e-01 
3.6861650778e+09 2.0885200000e-01 -1.6124000000e-01 7.9114800000e-01 1.6124000000e-01 7.9114800000e-01 1.6124000000e-01 2.0885200000e-01 -1.6124000000e-01 
3.7508619722e+09 2.0612600000e-01 -1.6192800000e-01 7.9387400000e-01 1.6192800000e-01 7.9387400000e-01 1.6192800000e-01 2.0612600000e-01 -1.6192800000e-01 
3.8166943795e+09 2.0337800000e-01 -1.6257300000e-01 7.9662200000e-01 1.6257300000e-01 7.9662200000e-01 1.6257300000e-01 2.0337800000e-01 -1.6257300000e-01 
3.8836822295e+09 2.0060800000e-01 -1.6317400000e-01 7.9939200000e-01 1.6317400000e-01 7.9939200000e-01 1.6317400000e-01 2.0060800000e-01 -1.6317400000e-01 
3.9518458016e+09 1.9781900000e-01 -1.6372900000e-01 8.0218100000e-01 1.6372900000e-01 8.0218100000e-01 1.6372900000e-01 1.9781900000e-01 -1.6372900000e-01 
4.0212057313e+09 1.9501200000e-01 -1.6423900000e-01 8.0498800000e-01 1.6423900000e-01 8.0498800000e-01 1.6423900000e-01 1.9501200000e-01 -1.6423900000e-01 
4.0917830161e+09 1.9218800000e-01 -1.6470100000e-01 8.0781200000e-01 1.6470100000e-01 8.0781200000e-01 1.6470100000e-01 1.9218800000e-01 -1.6470100000e-01 
4.1635990222e+09 1.8934800000e-01 -1.6511600000e-01 8.1065200000e-01 1.6511600000e-01 8.1065200000e-01 1.6511600000e-01 1.8934800000e-01 -1.6511600000e-01 
4.2366754907e+09 1.8649600000e-01 -1.6548300000e-01 8.1350400000e-01 1.6548300000e-01 8.1350400000e-01 1.6548300000e-01 1.8649600000e-01 -1.6548300000e-01 
4.3110345443e+09 1.8363100000e-01 -1.6580100000e-01 8.1636900000e-01 1.6580100000e-01 8.1636900000e-01 1.6580100000e-01 1.8363100000e-01 -1.6580100000e-01 
4.3866986941e+09 1.8075700000e-01 -1.6607000000e-01 8.1924300000e-01 1.6607000000e-01 8.1924300000e-01 1.6607000000e-01 1.8075700000e-01 -1.6607000000e-01 
4.4636908462e+09 1.7787400000e-01 -1.6628900000e-01 8.2212600000e-01 1.6628900000e-01 8.2212600000e-01 1.6628900000e-01 1.7787400000e-01 -1.6628900000e-01 
4.5420343086e+09 1.7498400000e-01 -1.6645900000e-01 8.2501600000e-01 1.6645900000e-01 8.2501600000e-01 1.6645900000e-01 1.7498400000e-01 -1.6645900000e-01 
4.6217527986e+09 1.7208900000e-01 -1.6657800000e-01 8.2791100000e-01 1.6657800000e-01 8.2791100000e-01 1.6657800000e-01 1.7208900000e-01 -1.6657800000e-01 
4.7028704497e+09 1.6919100000e-01 -1.6664800000e-01 8.3080900000e-01 1.6664800000e-01 8.3080900000e-01 1.6664800000e-01 1.6919100000e-01 -1.6664800000e-01 
4.7854118190e+09 1.6629100000e-01 -1.6666600000e-01 8.3370900000e-01 1.6666600000e-01 8.3370900000e-01 1.6666600000e-01 1.6629100000e-01 -1.6666600000e-01 
4.8694018945e+09 1.6339200000e-01 -1.6663400000e-01 8.3660800000e-01 1.6663400000e-01 8.3660800000e-01 1.6663400000e-01 1.6339200000e-01 -1.6663400000e-01 
4.9548661028e+09 1.6049500000e-01 -1.6655200000e-01 8.3950500000e-01 1.6655200000e-01 8.3950500000e-01 1.6655200000e-01 1.6049500000e-01 -1.6655200000e-01 
5.0418303169e+09 1.5760100000e-01 -1.6642000000e-01 8.4239900000e-01 1.6642000000e-01 8.4239900000e-01 1.6642000000e-01 1.5760100000e-01 -1.6642000000e-01 
5.1303208637e+09 1.5471300000e-01 -1.6623700000e-01 8.4528700000e-01 1.6623700000e-01 8.4528700000e-01 1.6623700000e-01 1.5471300000e-01 -1.6623700000e-01 
5.2203645324e+09 1.5183200000e-01 -1.6600500000e-01 8.4816800000e-01 1.6600500000e-01 8.4816800000e-01 1.6600500000e-01 1.5183200000e-01 -1.6600500000e-01 
5.3119885823e+09 1.4895900000e-01 -1.6572300000e-01 8.5104100000e-01 1.6572300000e-01 8.5104100000e-01 1.6572300000e-01 1.4895900000e-01 -1.6572300000e-01 
5.4052207510e+09 1.4609800000e-01 -1.6539300000e-01 8.5390200000e-01 1.6539300000e-01 8.5390200000e-01 1.6539300000e-01 1.4609800000e-01 -1.6539300000e-01 
5.5000892630e+09 1.4324900000e-01 -1.6501300000e-01 8.5675100000e-01 1.6501300000e-01 8.5675100000e-01 1.6501300000e-01 1.4324900000e-01 -1.6501300000e-01 
5.5966228383e+09 1.4041300000e-01 -1.6458600000e-01 8.5958700000e-01 1.6458600000e-01 8.5958700000e-01 1.6458600000e-01 1.4041300000e-01 -1.6458600000e-01 
5.6948507009e+09 1.3759300000e-01 -1.6411100000e-01 8.6240700000e-01 1.6411100000e-01 8.6240700000e-01 1.6411100000e-01 1.3759300000e-01 -1.6411100000e-01 
5.7948025877e+09 1.3479100000e-01 -1.6359000000e-01 8.6520900000e-01 1.6359000000e-01 8.6520900000e-01 1.6359000000e-01 1.3479100000e-01 -1.6359000000e-01 
5.8965087574e+09 1.3200600000e-01 -1.6302300000e-01 8.6799400000e-01 1.6302300000e-01 8.6799400000e-01 1.6302300000e-01 1.3200600000e-01 -1.6302300000e-01 
6.0000000000e+09 1.2924200000e-01 -1.6241100000e-01 8.7075800000e-01 1.6241100000e-01 8.7075800000e-01 1.6241100000e-01 1.2924200000e-01 -1.6241100000e-01 
