! Ideal Series 50 Ohm Resistor S2P
# Hz S RI R 50
! Hz ReS11 ImS11 ReS21 ImS21 ReS12 ImS12 ReS22 ImS22
1000000.000000 0.333333 0.000000 0.666667 0.000000 0.666667 0.000000 0.333333 0.000000
1017551.274299 0.333333 0.000000 0.666667 0.000000 0.666667 0.000000 0.333333 0.000000
1035410.595828 0.333333 0.000000 0.666667 0.000000 0.666667 0.000000 0.333333 0.000000
1053583.371207 0.333333 0.000000 0.666667 0.000000 0.666667 0.000000 0.333333 0.000000
1072075.101952 0.333333 0.000000 0.666667 0.000000 0.666667 0.000000 0.333333 0.000000
1090891.386135 0.333333 0.000000 0.666667 0.000000 0.666667 0.000000 0.333333 0.000000
1110037.920084 0.333333 0.000000 0.666667 0.000000 0.666667 0.000000 0.333333 0.000000
1129520.500102 0.333333 0.000000 0.666667 0.000000 0.666667 0.000000 0.333333 0.000000
1149345.024225 0.333333 0.000000 0.666667 0.000000 0.666667 0.000000 0.333333 0.000000
1169517.494010 0.333333 0.000000 0.666667 0.000000 0.666667 0.000000 0.333333 0.000000
1190044.016345 0.333333 0.000000 0.666667 0.000000 0.666667 0.000000 0.333333 0.000000
1210930.805303 0.333333 0.000000 0.666667 0.000000 0.666667 0.000000 0.333333 0.000000
1232184.184024 0.333333 0.000000 0.666667 0.000000 0.666667 0.000000 0.333333 0.000000
1253810.586625 0.333333 0.000000 0.666667 0.000000 0.666667 0.000000 0.333333 0.000000
1275816.560150 0.333333 0.000000 0.666667 0.000000 0.666667 0.000000 0.333333 0.000000
1298208.766552 0.333333 0.000000 0.666667 0.000000 0.666667 0.000000 0.333333 0.000000
1320993.984711 0.333333 0.000000 0.666667 0.000000 0.666667 0.000000 0.333333 0.000000
1344179.112484 0.333333 0.000000 0.666667 0.000000 0.666667 0.000000 0.333333 0.000000
1367771.168795 0.333333 0.000000 0.666667 0.000000 0.666667 0.000000 0.333333 0.000000
1391777.295756 0.333333 0.000000 0.666667 0.000000 0.666667 0.000000 0.333333 0.000000
1416204.760837 0.333333 0.000000 0.666667 0.000000 0.666667 0.000000 0.333333 0.000000
1441060.959058 0.333333 0.000000 0.666667 0.000000 0.666667 0.000000 0.333333 0.000000
1466353.415233 0.333333 0.000000 0.666667 0.000000 0.666667 0.000000 0.333333 0.000000
1492089.786243 0.333333 0.000000 0.666667 0.000000 0.666667 0.000000 0.333333 0.000000
1518277.863360 0.333333 0.000000 0.666667 0.000000 0.666667 0.000000 0.333333 0.000000
1544925.574602 0.333333 0.000000 0.666667 0.000000 0.666667 0.000000 0.333333 0.000000
1572040.987133 0.333333 0.000000 0.666667 0.000000 0.666667 0.000000 0.333333 0.000000
1599632.309707 0.333333 0.000000 0.666667 0.000000 0.666667 0.000000 0.333333 0.000000
1627707.895153 0.333333 0.000000 0.666667 0.000000 0.666667 0.000000 0.333333 0.000000
1656276.242899 0.333333 0.000000 0.666667 0.000000 0.666667 0.000000 0.333333 0.000000
1685346.001553 0.333333 0.000000 0.666667 0.000000 0.666667 0.000000 0.333333 0.000000
1714925.971515 0.333333 0.000000 0.666667 0.000000 0.666667 0.000000 0.333333 0.000000
1745025.107644 0.333333 0.000000 0.666667 0.000000 0.666667 0.000000 0.333333 0.000000
1775652.521967 0.333333 0.000000 0.666667 0.000000 0.666667 0.000000 0.333333 0.000000
1806817.486440 0.333333 0.000000 0.666667 0.000000 0.666667 0.000000 0.333333 0.000000
1838529.435752 0.333333 0.000000 0.666667 0.000000 0.666667 0.000000 0.333333 0.000000
1870797.970186 0.333333 0.000000 0.666667 0.000000 0.666667 0.000000 0.333333 0.000000
1903632.858519 0.333333 0.000000 0.666667 0.000000 0.666667 0.000000 0.333333 0.000000
1937044.040983 0.333333 0.000000 0.666667 0.000000 0.666667 0.000000 0.333333 0.000000
1971041.632276 0.333333 0.000000 0.666667 0.000000 0.666667 0.000000 0.333333 0.000000
2005635.924619 0.333333 0.000000 0.666667 0.000000 0.666667 0.000000 0.333333 0.000000
2040837.390876 0.333333 0.000000 0.666667 0.000000 0.666667 0.000000 0.333333 0.000000
2076656.687723 0.333333 0.000000 0.666667 0.000000 0.666667 0.000000 0.333333 0.000000
2113104.658874 0.333333 0.000000 0.666667 0.000000 0.666667 0.000000 0.333333 0.000000
2150192.338364 0.333333 0.000000 0.666667 0.000000 0.666667 0.000000 0.333333 0.000000
2187930.953890 0.333333 0.000000 0.666667 0.000000 0.666667 0.000000 0.333333 0.000000
2226331.930209 0.333333 0.000000 0.666667 0.000000 0.666667 0.000000 0.333333 0.000000
2265406.892597 0.333333 0.000000 0.666667 0.000000 0.666667 0.000000 0.333333 0.000000
2305167.670368 0.333333 0.000000 0.666667 0.000000 0.666667 0.000000 0.333333 0.000000
2345626.300456 0.333333 0.000000 0.666667 0.000000 0.666667 0.000000 0.333333 0.000000
2386795.031058 0.333333 0.000000 0.666667 0.000000 0.666667 0.000000 0.333333 0.000000
2428686.325344 0.333333 0.000000 0.666667 0.000000 0.666667 0.000000 0.333333 0.000000
2471312.865226 0.333333 0.000000 0.666667 0.000000 0.666667 0.000000 0.333333 0.000000
2514687.555202 0.333333 0.000000 0.666667 0.000000 0.666667 0.000000 0.333333 0.000000
2558823.526260 0.333333 0.000000 0.666667 0.000000 0.666667 0.000000 0.333333 0.000000
2603734.139852 0.333333 0.000000 0.666667 0.000000 0.666667 0.000000 0.333333 0.000000
2649432.991942 0.333333 0.000000 0.666667 0.000000 0.666667 0.000000 0.333333 0.000000
2695933.917121 0.333333 0.000000 0.666667 0.000000 0.666667 0.000000 0.333333 0.000000
2743250.992792 0.333333 0.000000 0.666667 0.000000 0.666667 0.000000 0.333333 0.000000
2791398.543438 0.333333 0.000000 0.666667 0.000000 0.666667 0.000000 0.333333 0.000000
2840391.144952 0.333333 0.000000 0.666667 0.000000 0.666667 0.000000 0.333333 0.000000
2890243.629053 0.333333 0.000000 0.666667 0.000000 0.666667 0.000000 0.333333 0.000000
2940971.087778 0.333333 0.000000 0.666667 0.000000 0.666667 0.000000 0.333333 0.000000
2992588.878045 0.333333 0.000000 0.666667 0.000000 0.666667 0.000000 0.333333 0.000000
3045112.626307 0.333333 0.000000 0.666667 0.000000 0.666667 0.000000 0.333333 0.000000
3098558.233283 0.333333 0.000000 0.666667 0.000000 0.666667 0.000000 0.333333 0.000000
3152941.878767 0.333333 0.000000 0.666667 0.000000 0.666667 0.000000 0.333333 0.000000
3208280.026530 0.333333 0.000000 0.666667 0.000000 0.666667 0.000000 0.333333 0.000000
3264589.429304 0.333333 0.000000 0.666667 0.000000 0.666667 0.000000 0.333333 0.000000
3321887.133851 0.333333 0.000000 0.666667 0.000000 0.666667 0.000000 0.333333 0.000000
3380190.486128 0.333333 0.000000 0.666667 0.000000 0.666667 0.000000 0.333333 0.000000
3439517.136533 0.333333 0.000000 0.666667 0.000000 0.666667 0.000000 0.333333 0.000000
3499885.045252 0.333333 0.000000 0.666667 0.000000 0.666667 0.000000 0.333333 0.000000
3561312.487696 0.333333 0.000000 0.666667 0.000000 0.666667 0.000000 0.333333 0.000000
3623818.060032 0.333333 0.000000 0.666667 0.000000 0.666667 0.000000 0.333333 0.000000
3687420.684814 0.333333 0.000000 0.666667 0.000000 0.666667 0.000000 0.333333 0.000000
3752139.616709 0.333333 0.000000 0.666667 0.000000 0.666667 0.000000 0.333333 0.000000
3817994.448330 0.333333 0.000000 0.666667 0.000000 0.666667 0.000000 0.333333 0.000000
3885005.116164 0.333333 0.000000 0.666667 0.000000 0.666667 0.000000 0.333333 0.000000
3953191.906611 0.333333 0.000000 0.666667 0.000000 0.666667 0.000000 0.333333 0.000000
4022575.462121 0.333333 0.000000 0.666667 0.000000 0.666667 0.000000 0.333333 0.000000
4093176.787445 0.333333 0.000000 0.666667 0.000000 0.666667 0.000000 0.333333 0.000000
4165017.255996 0.333333 0.000000 0.666667 0.000000 0.666667 0.000000 0.333333 0.000000
4238118.616316 0.333333 0.000000 0.666667 0.000000 0.666667 0.000000 0.333333 0.000000
4312502.998663 0.333333 0.000000 0.666667 0.000000 0.666667 0.000000 0.333333 0.000000
4388192.921708 0.333333 0.000000 0.666667 0.000000 0.666667 0.000000 0.333333 0.000000
4465211.299353 0.333333 0.000000 0.666667 0.000000 0.666667 0.000000 0.333333 0.000000
4543581.447671 0.333333 0.000000 0.666667 0.000000 0.666667 0.000000 0.333333 0.000000
4623327.091959 0.333333 0.000000 0.666667 0.000000 0.666667 0.000000 0.333333 0.000000
4704472.373924 0.333333 0.000000 0.666667 0.000000 0.666667 0.000000 0.333333 0.000000
4787041.858991 0.333333 0.000000 0.666667 0.000000 0.666667 0.000000 0.333333 0.000000
4871060.543739 0.333333 0.000000 0.666667 0.000000 0.666667 0.000000 0.333333 0.000000
4956553.863470 0.333333 0.000000 0.666667 0.000000 0.666667 0.000000 0.333333 0.000000
5043547.699905 0.333333 0.000000 0.666667 0.000000 0.666667 0.000000 0.333333 0.000000
5132068.389026 0.333333 0.000000 0.666667 0.000000 0.666667 0.000000 0.333333 0.000000
5222142.729044 0.333333 0.000000 0.666667 0.000000 0.666667 0.000000 0.333333 0.000000
5313797.988510 0.333333 0.000000 0.666667 0.000000 0.666667 0.000000 0.333333 0.000000
5407061.914575 0.333333 0.000000 0.666667 0.000000 0.666667 0.000000 0.333333 0.000000
5501962.741390 0.333333 0.000000 0.666667 0.000000 0.666667 0.000000 0.333333 0.000000
5598529.198647 0.333333 0.000000 0.666667 0.000000 0.666667 0.000000 0.333333 0.000000
5696790.520284 0.333333 0.000000 0.666667 0.000000 0.666667 0.000000 0.333333 0.000000
5796776.453329 0.333333 0.000000 0.666667 0.000000 0.666667 0.000000 0.333333 0.000000
5898517.266911 0.333333 0.000000 0.666667 0.000000 0.666667 0.000000 0.333333 0.000000
6002043.761421 0.333333 0.000000 0.666667 0.000000 0.666667 0.000000 0.333333 0.000000
6107387.277832 0.333333 0.000000 0.666667 0.000000 0.666667 0.000000 0.333333 0.000000
6214579.707195 0.333333 0.000000 0.666667 0.000000 0.666667 0.000000 0.333333 0.000000
6323653.500289 0.333333 0.000000 0.666667 0.000000 0.666667 0.000000 0.333333 0.000000
6434641.677445 0.333333 0.000000 0.666667 0.000000 0.666667 0.000000 0.333333 0.000000
6547577.838542 0.333333 0.000000 0.666667 0.000000 0.666667 0.000000 0.333333 0.000000
6662496.173180 0.333333 0.000000 0.666667 0.000000 0.666667 0.000000 0.333333 0.000000
6779431.471032 0.333333 0.000000 0.666667 0.000000 0.666667 0.000000 0.333333 0.000000
6898419.132371 0.333333 0.000000 0.666667 0.000000 0.666667 0.000000 0.333333 0.000000
7019495.178793 0.333333 0.000000 0.666667 0.000000 0.666667 0.000000 0.333333 0.000000
7142696.264117 0.333333 0.000000 0.666667 0.000000 0.666667 0.000000 0.333333 0.000000
7268059.685483 0.333333 0.000000 0.666667 0.000000 0.666667 0.000000 0.333333 0.000000
7395623.394644 0.333333 0.000000 0.666667 0.000000 0.666667 0.000000 0.333333 0.000000
7525426.009456 0.333333 0.000000 0.666667 0.000000 0.666667 0.000000 0.333333 0.000000
7657506.825565 0.333333 0.000000 0.666667 0.000000 0.666667 0.000000 0.333333 0.000000
7791905.828307 0.333333 0.000000 0.666667 0.000000 0.666667 0.000000 0.333333 0.000000
7928663.704811 0.333333 0.000000 0.666667 0.000000 0.666667 0.000000 0.333333 0.000000
8067821.856319 0.333333 0.000000 0.666667 0.000000 0.666667 0.000000 0.333333 0.000000
8209422.410715 0.333333 0.000000 0.666667 0.000000 0.666667 0.000000 0.333333 0.000000
8353508.235282 0.333333 0.000000 0.666667 0.000000 0.666667 0.000000 0.333333 0.000000
8500122.949678 0.333333 0.000000 0.666667 0.000000 0.666667 0.000000 0.333333 0.000000
8649310.939144 0.333333 0.000000 0.666667 0.000000 0.666667 0.000000 0.333333 0.000000
8801117.367934 0.333333 0.000000 0.666667 0.000000 0.666667 0.000000 0.333333 0.000000
8955588.192996 0.333333 0.000000 0.666667 0.000000 0.666667 0.000000 0.333333 0.000000
9112770.177881 0.333333 0.000000 0.666667 0.000000 0.666667 0.000000 0.333333 0.000000
9272710.906897 0.333333 0.000000 0.666667 0.000000 0.666667 0.000000 0.333333 0.000000
9435458.799519 0.333333 0.000000 0.666667 0.000000 0.666667 0.000000 0.333333 0.000000
9601063.125046 0.333333 0.000000 0.666667 0.000000 0.666667 0.000000 0.333333 0.000000
9769574.017516 0.333333 0.000000 0.666667 0.000000 0.666667 0.000000 0.333333 0.000000
9941042.490882 0.333333 0.000000 0.666667 0.000000 0.666667 0.000000 0.333333 0.000000
10115520.454458 0.333333 0.000000 0.666667 0.000000 0.666667 0.000000 0.333333 0.000000
10293060.728631 0.333333 0.000000 0.666667 0.000000 0.666667 0.000000 0.333333 0.000000
10473717.060856 0.333333 0.000000 0.666667 0.000000 0.666667 0.000000 0.333333 0.000000
10657544.141921 0.333333 0.000000 0.666667 0.000000 0.666667 0.000000 0.333333 0.000000
10844597.622510 0.333333 0.000000 0.666667 0.000000 0.666667 0.000000 0.333333 0.000000
11034934.130045 0.333333 0.000000 0.666667 0.000000 0.666667 0.000000 0.333333 0.000000
11228611.285833 0.333333 0.000000 0.666667 0.000000 0.666667 0.000000 0.333333 0.000000
11425687.722508 0.333333 0.000000 0.666667 0.000000 0.666667 0.000000 0.333333 0.000000
11626223.101780 0.333333 0.000000 0.666667 0.000000 0.666667 0.000000 0.333333 0.000000
11830278.132501 0.333333 0.000000 0.666667 0.000000 0.666667 0.000000 0.333333 0.000000
12037914.589038 0.333333 0.000000 0.666667 0.000000 0.666667 0.000000 0.333333 0.000000
12249195.329979 0.333333 0.000000 0.666667 0.000000 0.666667 0.000000 0.333333 0.000000
12464184.317157 0.333333 0.000000 0.666667 0.000000 0.666667 0.000000 0.333333 0.000000
12682946.635021 0.333333 0.000000 0.666667 0.000000 0.666667 0.000000 0.333333 0.000000
12905548.510332 0.333333 0.000000 0.666667 0.000000 0.666667 0.000000 0.333333 0.000000
13132057.332216 0.333333 0.000000 0.666667 0.000000 0.666667 0.000000 0.333333 0.000000
13362541.672564 0.333333 0.000000 0.666667 0.000000 0.666667 0.000000 0.333333 0.000000
13597071.306791 0.333333 0.000000 0.666667 0.000000 0.666667 0.000000 0.333333 0.000000
13835717.234960 0.333333 0.000000 0.666667 0.000000 0.666667 0.000000 0.333333 0.000000
14078551.703275 0.333333 0.000000 0.666667 0.000000 0.666667 0.000000 0.333333 0.000000
14325648.225952 0.333333 0.000000 0.666667 0.000000 0.666667 0.000000 0.333333 0.000000
14577081.607476 0.333333 0.000000 0.666667 0.000000 0.666667 0.000000 0.333333 0.000000
14832927.965248 0.333333 0.000000 0.666667 0.000000 0.666667 0.000000 0.333333 0.000000
15093264.752624 0.333333 0.000000 0.666667 0.000000 0.666667 0.000000 0.333333 0.000000
15358170.782365 0.333333 0.000000 0.666667 0.000000 0.666667 0.000000 0.333333 0.000000
15627726.250497 0.333333 0.000000 0.666667 0.000000 0.666667 0.000000 0.333333 0.000000
15902012.760590 0.333333 0.000000 0.666667 0.000000 0.666667 0.000000 0.333333 0.000000
16181113.348457 0.333333 0.000000 0.666667 0.000000 0.666667 0.000000 0.333333 0.000000
16465112.507299 0.333333 0.000000 0.666667 0.000000 0.666667 0.000000 0.333333 0.000000
16754096.213279 0.333333 0.000000 0.666667 0.000000 0.666667 0.000000 0.333333 0.000000
17048151.951550 0.333333 0.000000 0.666667 0.000000 0.666667 0.000000 0.333333 0.000000
17347368.742743 0.333333 0.000000 0.666667 0.000000 0.666667 0.000000 0.333333 0.000000
17651837.169913 0.333333 0.000000 0.666667 0.000000 0.666667 0.000000 0.333333 0.000000
17961649.405964 0.333333 0.000000 0.666667 0.000000 0.666667 0.000000 0.333333 0.000000
18276899.241551 0.333333 0.000000 0.666667 0.000000 0.666667 0.000000 0.333333 0.000000
18597682.113475 0.333333 0.000000 0.666667 0.000000 0.666667 0.000000 0.333333 0.000000
18924095.133574 0.333333 0.000000 0.666667 0.000000 0.666667 0.000000 0.333333 0.000000
19256237.118124 0.333333 0.000000 0.666667 0.000000 0.666667 0.000000 0.333333 0.000000
19594208.617751 0.333333 0.000000 0.666667 0.000000 0.666667 0.000000 0.333333 0.000000
19938111.947874 0.333333 0.000000 0.666667 0.000000 0.666667 0.000000 0.333333 0.000000
20288051.219675 0.333333 0.000000 0.666667 0.000000 0.666667 0.000000 0.333333 0.000000
20644132.371624 0.333333 0.000000 0.666667 0.000000 0.666667 0.000000 0.333333 0.000000
21006463.201544 0.333333 0.000000 0.666667 0.000000 0.666667 0.000000 0.333333 0.000000
21375153.399246 0.333333 0.000000 0.666667 0.000000 0.666667 0.000000 0.333333 0.000000
21750314.579740 0.333333 0.000000 0.666667 0.000000 0.666667 0.000000 0.333333 0.000000
22132060.317019 0.333333 0.000000 0.666667 0.000000 0.666667 0.000000 0.333333 0.000000
22520506.178445 0.333333 0.000000 0.666667 0.000000 0.666667 0.000000 0.333333 0.000000
22915769.759735 0.333333 0.000000 0.666667 0.000000 0.666667 0.000000 0.333333 0.000000
23317970.720562 0.333333 0.000000 0.666667 0.000000 0.666667 0.000000 0.333333 0.000000
23727230.820775 0.333333 0.000000 0.666667 0.000000 0.666667 0.000000 0.333333 0.000000
24143673.957266 0.333333 0.000000 0.666667 0.000000 0.666667 0.000000 0.333333 0.000000
24567426.201476 0.333333 0.000000 0.666667 0.000000 0.666667 0.000000 0.333333 0.000000
24998615.837559 0.333333 0.000000 0.666667 0.000000 0.666667 0.000000 0.333333 0.000000
25437373.401219 0.333333 0.000000 0.666667 0.000000 0.666667 0.000000 0.333333 0.000000
25883831.719231 0.333333 0.000000 0.666667 0.000000 0.666667 0.000000 0.333333 0.000000
26338125.949644 0.333333 0.000000 0.666667 0.000000 0.666667 0.000000 0.333333 0.000000
26800393.622709 0.333333 0.000000 0.666667 0.000000 0.666667 0.000000 0.333333 0.000000
27270774.682502 0.333333 0.000000 0.666667 0.000000 0.666667 0.000000 0.333333 0.000000
27749411.529302 0.333333 0.000000 0.666667 0.000000 0.666667 0.000000 0.333333 0.000000
28236449.062688 0.333333 0.000000 0.666667 0.000000 0.666667 0.000000 0.333333 0.000000
28732034.725418 0.333333 0.000000 0.666667 0.000000 0.666667 0.000000 0.333333 0.000000
29236318.548053 0.333333 0.000000 0.666667 0.000000 0.666667 0.000000 0.333333 0.000000
29749453.194383 0.333333 0.000000 0.666667 0.000000 0.666667 0.000000 0.333333 0.000000
30271594.007643 0.333333 0.000000 0.666667 0.000000 0.666667 0.000000 0.333333 0.000000
30802899.057540 0.333333 0.000000 0.666667 0.000000 0.666667 0.000000 0.333333 0.000000
31343529.188103 0.333333 0.000000 0.666667 0.000000 0.666667 0.000000 0.333333 0.000000
31893648.066383 0.333333 0.000000 0.666667 0.000000 0.666667 0.000000 0.333333 0.000000
32453422.231992 0.333333 0.000000 0.666667 0.000000 0.666667 0.000000 0.333333 0.000000
33023021.147528 0.333333 0.000000 0.666667 0.000000 0.666667 0.000000 0.333333 0.000000
33602617.249870 0.333333 0.000000 0.666667 0.000000 0.666667 0.000000 0.333333 0.000000
34192386.002387 0.333333 0.000000 0.666667 0.000000 0.666667 0.000000 0.333333 0.000000
34792505.948053 0.333333 0.000000 0.666667 0.000000 0.666667 0.000000 0.333333 0.000000
35403158.763497 0.333333 0.000000 0.666667 0.000000 0.666667 0.000000 0.333333 0.000000
36024529.314007 0.333333 0.000000 0.666667 0.000000 0.666667 0.000000 0.333333 0.000000
36656805.709490 0.333333 0.000000 0.666667 0.000000 0.666667 0.000000 0.333333 0.000000
37300179.361423 0.333333 0.000000 0.666667 0.000000 0.666667 0.000000 0.333333 0.000000
37954845.040797 0.333333 0.000000 0.666667 0.000000 0.666667 0.000000 0.333333 0.000000
38621000.937085 0.333333 0.000000 0.666667 0.000000 0.666667 0.000000 0.333333 0.000000
39298848.718234 0.333333 0.000000 0.666667 0.000000 0.666667 0.000000 0.333333 0.000000
39988593.591724 0.333333 0.000000 0.666667 0.000000 0.666667 0.000000 0.333333 0.000000
40690444.366684 0.333333 0.000000 0.666667 0.000000 0.666667 0.000000 0.333333 0.000000
41404613.517112 0.333333 0.000000 0.666667 0.000000 0.666667 0.000000 0.333333 0.000000
42131317.246196 0.333333 0.000000 0.666667 0.000000 0.666667 0.000000 0.333333 0.000000
42870775.551762 0.333333 0.000000 0.666667 0.000000 0.666667 0.000000 0.333333 0.000000
43623212.292883 0.333333 0.000000 0.666667 0.000000 0.666667 0.000000 0.333333 0.000000
44388855.257639 0.333333 0.000000 0.666667 0.000000 0.666667 0.000000 0.333333 0.000000
45167936.232085 0.333333 0.000000 0.666667 0.000000 0.666667 0.000000 0.333333 0.000000
45960691.070415 0.333333 0.000000 0.666667 0.000000 0.666667 0.000000 0.333333 0.000000
46767359.766364 0.333333 0.000000 0.666667 0.000000 0.666667 0.000000 0.333333 0.000000
47588186.525864 0.333333 0.000000 0.666667 0.000000 0.666667 0.000000 0.333333 0.000000
48423419.840972 0.333333 0.000000 0.666667 0.000000 0.666667 0.000000 0.333333 0.000000
49273312.565098 0.333333 0.000000 0.666667 0.000000 0.666667 0.000000 0.333333 0.000000
50138121.989549 0.333333 0.000000 0.666667 0.000000 0.666667 0.000000 0.333333 0.000000
51018109.921425 0.333333 0.000000 0.666667 0.000000 0.666667 0.000000 0.333333 0.000000
51913542.762873 0.333333 0.000000 0.666667 0.000000 0.666667 0.000000 0.333333 0.000000
52824691.591738 0.333333 0.000000 0.666667 0.000000 0.666667 0.000000 0.333333 0.000000
53751832.243625 0.333333 0.000000 0.666667 0.000000 0.666667 0.000000 0.333333 0.000000
54695245.395407 0.333333 0.000000 0.666667 0.000000 0.666667 0.000000 0.333333 0.000000
55655216.650194 0.333333 0.000000 0.666667 0.000000 0.666667 0.000000 0.333333 0.000000
56632036.623793 0.333333 0.000000 0.666667 0.000000 0.666667 0.000000 0.333333 0.000000
57626001.032689 0.333333 0.000000 0.666667 0.000000 0.666667 0.000000 0.333333 0.000000
58637410.783569 0.333333 0.000000 0.666667 0.000000 0.666667 0.000000 0.333333 0.000000
59666572.064415 0.333333 0.000000 0.666667 0.000000 0.666667 0.000000 0.333333 0.000000
60713796.437199 0.333333 0.000000 0.666667 0.000000 0.666667 0.000000 0.333333 0.000000
61779400.932203 0.333333 0.000000 0.666667 0.000000 0.666667 0.000000 0.333333 0.000000
62863708.143993 0.333333 0.000000 0.666667 0.000000 0.666667 0.000000 0.333333 0.000000
63967046.329081 0.333333 0.000000 0.666667 0.000000 0.666667 0.000000 0.333333 0.000000
65089749.505301 0.333333 0.000000 0.666667 0.000000 0.666667 0.000000 0.333333 0.000000
66232157.552923 0.333333 0.000000 0.666667 0.000000 0.666667 0.000000 0.333333 0.000000
67394616.317549 0.333333 0.000000 0.666667 0.000000 0.666667 0.000000 0.333333 0.000000
68577477.714815 0.333333 0.000000 0.666667 0.000000 0.666667 0.000000 0.333333 0.000000
69781099.836923 0.333333 0.000000 0.666667 0.000000 0.666667 0.000000 0.333333 0.000000
71005847.061047 0.333333 0.000000 0.666667 0.000000 0.666667 0.000000 0.333333 0.000000
72252090.159650 0.333333 0.000000 0.666667 0.000000 0.666667 0.000000 0.333333 0.000000
73520206.412719 0.333333 0.000000 0.666667 0.000000 0.666667 0.000000 0.333333 0.000000
74810579.721989 0.333333 0.000000 0.666667 0.000000 0.666667 0.000000 0.333333 0.000000
76123600.727157 0.333333 0.000000 0.666667 0.000000 0.666667 0.000000 0.333333 0.000000
77459666.924148 0.333333 0.000000 0.666667 0.000000 0.666667 0.000000 0.333333 0.000000
78819182.785444 0.333333 0.000000 0.666667 0.000000 0.666667 0.000000 0.333333 0.000000
80202559.882536 0.333333 0.000000 0.666667 0.000000 0.666667 0.000000 0.333333 0.000000
81610217.010517 0.333333 0.000000 0.666667 0.000000 0.666667 0.000000 0.333333 0.000000
83042580.314871 0.333333 0.000000 0.666667 0.000000 0.666667 0.000000 0.333333 0.000000
84500083.420475 0.333333 0.000000 0.666667 0.000000 0.666667 0.000000 0.333333 0.000000
85983167.562878 0.333333 0.000000 0.666667 0.000000 0.666667 0.000000 0.333333 0.000000
87492281.721872 0.333333 0.000000 0.666667 0.000000 0.666667 0.000000 0.333333 0.000000
89027882.757419 0.333333 0.000000 0.666667 0.000000 0.666667 0.000000 0.333333 0.000000
90590435.547955 0.333333 0.000000 0.666667 0.000000 0.666667 0.000000 0.333333 0.000000
92180413.131124 0.333333 0.000000 0.666667 0.000000 0.666667 0.000000 0.333333 0.000000
93798296.846985 0.333333 0.000000 0.666667 0.000000 0.666667 0.000000 0.333333 0.000000
95444576.483726 0.333333 0.000000 0.666667 0.000000 0.666667 0.000000 0.333333 0.000000
97119750.425946 0.333333 0.000000 0.666667 0.000000 0.666667 0.000000 0.333333 0.000000
98824325.805523 0.333333 0.000000 0.666667 0.000000 0.666667 0.000000 0.333333 0.000000
100558818.655151 0.333333 0.000000 0.666667 0.000000 0.666667 0.000000 0.333333 0.000000
102323754.064552 0.333333 0.000000 0.666667 0.000000 0.666667 0.000000 0.333333 0.000000
104119666.339444 0.333333 0.000000 0.666667 0.000000 0.666667 0.000000 0.333333 0.000000
105947099.163289 0.333333 0.000000 0.666667 0.000000 0.666667 0.000000 0.333333 0.000000
107806605.761889 0.333333 0.000000 0.666667 0.000000 0.666667 0.000000 0.333333 0.000000
109698749.070862 0.333333 0.000000 0.666667 0.000000 0.666667 0.000000 0.333333 0.000000
111624101.906063 0.333333 0.000000 0.666667 0.000000 0.666667 0.000000 0.333333 0.000000
113583247.136997 0.333333 0.000000 0.666667 0.000000 0.666667 0.000000 0.333333 0.000000
115576777.863272 0.333333 0.000000 0.666667 0.000000 0.666667 0.000000 0.333333 0.000000
117605297.594146 0.333333 0.000000 0.666667 0.000000 0.666667 0.000000 0.333333 0.000000
119669420.431238 0.333333 0.000000 0.666667 0.000000 0.666667 0.000000 0.333333 0.000000
121769771.254431 0.333333 0.000000 0.666667 0.000000 0.666667 0.000000 0.333333 0.000000
123906985.911046 0.333333 0.000000 0.666667 0.000000 0.666667 0.000000 0.333333 0.000000
126081711.408334 0.333333 0.000000 0.666667 0.000000 0.666667 0.000000 0.333333 0.000000
128294606.109351 0.333333 0.000000 0.666667 0.000000 0.666667 0.000000 0.333333 0.000000
130546339.932261 0.333333 0.000000 0.666667 0.000000 0.666667 0.000000 0.333333 0.000000
132837594.553144 0.333333 0.000000 0.666667 0.000000 0.666667 0.000000 0.333333 0.000000
135169063.612367 0.333333 0.000000 0.666667 0.000000 0.666667 0.000000 0.333333 0.000000
137541452.924569 0.333333 0.000000 0.666667 0.000000 0.666667 0.000000 0.333333 0.000000
139955480.692333 0.333333 0.000000 0.666667 0.000000 0.666667 0.000000 0.333333 0.000000
142411877.723614 0.333333 0.000000 0.666667 0.000000 0.666667 0.000000 0.333333 0.000000
144911387.652979 0.333333 0.000000 0.666667 0.000000 0.666667 0.000000 0.333333 0.000000
147454767.166727 0.333333 0.000000 0.666667 0.000000 0.666667 0.000000 0.333333 0.000000
150042786.231968 0.333333 0.000000 0.666667 0.000000 0.666667 0.000000 0.333333 0.000000
152676228.329713 0.333333 0.000000 0.666667 0.000000 0.666667 0.000000 0.333333 0.000000
155355890.692067 0.333333 0.000000 0.666667 0.000000 0.666667 0.000000 0.333333 0.000000
158082584.543571 0.333333 0.000000 0.666667 0.000000 0.666667 0.000000 0.333333 0.000000
160857135.346792 0.333333 0.000000 0.666667 0.000000 0.666667 0.000000 0.333333 0.000000
163680383.052217 0.333333 0.000000 0.666667 0.000000 0.666667 0.000000 0.333333 0.000000
166553182.352535 0.333333 0.000000 0.666667 0.000000 0.666667 0.000000 0.333333 0.000000
169476402.941378 0.333333 0.000000 0.666667 0.000000 0.666667 0.000000 0.333333 0.000000
172450929.776612 0.333333 0.000000 0.666667 0.000000 0.666667 0.000000 0.333333 0.000000
175477663.348241 0.333333 0.000000 0.666667 0.000000 0.666667 0.000000 0.333333 0.000000
178557519.951016 0.333333 0.000000 0.666667 0.000000 0.666667 0.000000 0.333333 0.000000
181691431.961828 0.333333 0.000000 0.666667 0.000000 0.666667 0.000000 0.333333 0.000000
184880348.121970 0.333333 0.000000 0.666667 0.000000 0.666667 0.000000 0.333333 0.000000
188125233.824357 0.333333 0.000000 0.666667 0.000000 0.666667 0.000000 0.333333 0.000000
191427071.405774 0.333333 0.000000 0.666667 0.000000 0.666667 0.000000 0.333333 0.000000
194786860.444274 0.333333 0.000000 0.666667 0.000000 0.666667 0.000000 0.333333 0.000000
198205618.061775 0.333333 0.000000 0.666667 0.000000 0.666667 0.000000 0.333333 0.000000
201684379.231983 0.333333 0.000000 0.666667 0.000000 0.666667 0.000000 0.333333 0.000000
205224197.093709 0.333333 0.000000 0.666667 0.000000 0.666667 0.000000 0.333333 0.000000
208826143.269696 0.333333 0.000000 0.666667 0.000000 0.666667 0.000000 0.333333 0.000000
212491308.191028 0.333333 0.000000 0.666667 0.000000 0.666667 0.000000 0.333333 0.000000
216220801.427245 0.333333 0.000000 0.666667 0.000000 0.666667 0.000000 0.333333 0.000000
220015752.022247 0.333333 0.000000 0.666667 0.000000 0.666667 0.000000 0.333333 0.000000
223877308.836094 0.333333 0.000000 0.666667 0.000000 0.666667 0.000000 0.333333 0.000000
227806640.892801 0.333333 0.000000 0.666667 0.000000 0.666667 0.000000 0.333333 0.000000
231804937.734247 0.333333 0.000000 0.666667 0.000000 0.666667 0.000000 0.333333 0.000000
235873409.780286 0.333333 0.000000 0.666667 0.000000 0.666667 0.000000 0.333333 0.000000
240013288.695185 0.333333 0.000000 0.666667 0.000000 0.666667 0.000000 0.333333 0.000000
244225827.760482 0.333333 0.000000 0.666667 0.000000 0.666667 0.000000 0.333333 0.000000
248512302.254409 0.333333 0.000000 0.666667 0.000000 0.666667 0.000000 0.333333 0.000000
252874009.837957 0.333333 0.000000 0.666667 0.000000 0.666667 0.000000 0.333333 0.000000
257312270.947714 0.333333 0.000000 0.666667 0.000000 0.666667 0.000000 0.333333 0.000000
261828429.195619 0.333333 0.000000 0.666667 0.000000 0.666667 0.000000 0.333333 0.000000
266423851.775711 0.333333 0.000000 0.666667 0.000000 0.666667 0.000000 0.333333 0.000000
271099929.878027 0.333333 0.000000 0.666667 0.000000 0.666667 0.000000 0.333333 0.000000
275858079.109760 0.333333 0.000000 0.666667 0.000000 0.666667 0.000000 0.333333 0.000000
280699739.923814 0.333333 0.000000 0.666667 0.000000 0.666667 0.000000 0.333333 0.000000
285626378.054879 0.333333 0.000000 0.666667 0.000000 0.666667 0.000000 0.333333 0.000000
290639484.963154 0.333333 0.000000 0.666667 0.000000 0.666667 0.000000 0.333333 0.000000
295740578.285866 0.333333 0.000000 0.666667 0.000000 0.666667 0.000000 0.333333 0.000000
300931202.296710 0.333333 0.000000 0.666667 0.000000 0.666667 0.000000 0.333333 0.000000
306212928.373353 0.333333 0.000000 0.666667 0.000000 0.666667 0.000000 0.333333 0.000000
311587355.473137 0.333333 0.000000 0.666667 0.000000 0.666667 0.000000 0.333333 0.000000
317056110.617150 0.333333 0.000000 0.666667 0.000000 0.666667 0.000000 0.333333 0.000000
322620849.382771 0.333333 0.000000 0.666667 0.000000 0.666667 0.000000 0.333333 0.000000
328283256.404869 0.333333 0.000000 0.666667 0.000000 0.666667 0.000000 0.333333 0.000000
334045045.885804 0.333333 0.000000 0.666667 0.000000 0.666667 0.000000 0.333333 0.000000
339907962.114372 0.333333 0.000000 0.666667 0.000000 0.666667 0.000000 0.333333 0.000000
345873779.993861 0.333333 0.000000 0.666667 0.000000 0.666667 0.000000 0.333333 0.000000
351944305.579370 0.333333 0.000000 0.666667 0.000000 0.666667 0.000000 0.333333 0.000000
358121376.624569 0.333333 0.000000 0.666667 0.000000 0.666667 0.000000 0.333333 0.000000
364406863.138048 0.333333 0.000000 0.666667 0.000000 0.666667 0.000000 0.333333 0.000000
370802667.949427 0.333333 0.000000 0.666667 0.000000 0.666667 0.000000 0.333333 0.000000
377310727.285413 0.333333 0.000000 0.666667 0.000000 0.666667 0.000000 0.333333 0.000000
383933011.355959 0.333333 0.000000 0.666667 0.000000 0.666667 0.000000 0.333333 0.000000
390671524.950715 0.333333 0.000000 0.666667 0.000000 0.666667 0.000000 0.333333 0.000000
397528308.045939 0.333333 0.000000 0.666667 0.000000 0.666667 0.000000 0.333333 0.000000
404505436.422077 0.333333 0.000000 0.666667 0.000000 0.666667 0.000000 0.333333 0.000000
411605022.292163 0.333333 0.000000 0.666667 0.000000 0.666667 0.000000 0.333333 0.000000
418829214.941264 0.333333 0.000000 0.666667 0.000000 0.666667 0.000000 0.333333 0.000000
426180201.377138 0.333333 0.000000 0.666667 0.000000 0.666667 0.000000 0.333333 0.000000
433660206.992316 0.333333 0.000000 0.666667 0.000000 0.666667 0.000000 0.333333 0.000000
441271496.237807 0.333333 0.000000 0.666667 0.000000 0.666667 0.000000 0.333333 0.000000
449016373.308613 0.333333 0.000000 0.666667 0.000000 0.666667 0.000000 0.333333 0.000000
456897182.841302 0.333333 0.000000 0.666667 0.000000 0.666667 0.000000 0.333333 0.000000
464916310.623796 0.333333 0.000000 0.666667 0.000000 0.666667 0.000000 0.333333 0.000000
473076184.317639 0.333333 0.000000 0.666667 0.000000 0.666667 0.000000 0.333333 0.000000
481379274.192928 0.333333 0.000000 0.666667 0.000000 0.666667 0.000000 0.333333 0.000000
489828093.876148 0.333333 0.000000 0.666667 0.000000 0.666667 0.000000 0.333333 0.000000
498425201.111133 0.333333 0.000000 0.666667 0.000000 0.666667 0.000000 0.333333 0.000000
507173198.533375 0.333333 0.000000 0.666667 0.000000 0.666667 0.000000 0.333333 0.000000
516074734.457944 0.333333 0.000000 0.666667 0.000000 0.666667 0.000000 0.333333 0.000000
525132503.681205 0.333333 0.000000 0.666667 0.000000 0.666667 0.000000 0.333333 0.000000
534349248.296641 0.333333 0.000000 0.666667 0.000000 0.666667 0.000000 0.333333 0.000000
543727758.524967 0.333333 0.000000 0.666667 0.000000 0.666667 0.000000 0.333333 0.000000
553270873.558826 0.333333 0.000000 0.666667 0.000000 0.666667 0.000000 0.333333 0.000000
562981482.422314 0.333333 0.000000 0.666667 0.000000 0.666667 0.000000 0.333333 0.000000
572862524.845572 0.333333 0.000000 0.666667 0.000000 0.666667 0.000000 0.333333 0.000000
582916992.154765 0.333333 0.000000 0.666667 0.000000 0.666667 0.000000 0.333333 0.000000
593147928.177628 0.333333 0.000000 0.666667 0.000000 0.666667 0.000000 0.333333 0.000000
603558430.164965 0.333333 0.000000 0.666667 0.000000 0.666667 0.000000 0.333333 0.000000
614151649.728272 0.333333 0.000000 0.666667 0.000000 0.666667 0.000000 0.333333 0.000000
624930793.793844 0.333333 0.000000 0.666667 0.000000 0.666667 0.000000 0.333333 0.000000
635899125.573622 0.333333 0.000000 0.666667 0.000000 0.666667 0.000000 0.333333 0.000000
647059965.553067 0.333333 0.000000 0.666667 0.000000 0.666667 0.000000 0.333333 0.000000
658416692.496401 0.333333 0.000000 0.666667 0.000000 0.666667 0.000000 0.333333 0.000000
669972744.469454 0.333333 0.000000 0.666667 0.000000 0.666667 0.000000 0.333333 0.000000
681731619.880500 0.333333 0.000000 0.666667 0.000000 0.666667 0.000000 0.333333 0.000000
693696878.539333 0.333333 0.000000 0.666667 0.000000 0.666667 0.000000 0.333333 0.000000
705872142.734946 0.333333 0.000000 0.666667 0.000000 0.666667 0.000000 0.333333 0.000000
718261098.332121 0.333333 0.000000 0.666667 0.000000 0.666667 0.000000 0.333333 0.000000
730867495.887259 0.333333 0.000000 0.666667 0.000000 0.666667 0.000000 0.333333 0.000000
743695151.783811 0.333333 0.000000 0.666667 0.000000 0.666667 0.000000 0.333333 0.000000
756747949.387615 0.333333 0.000000 0.666667 0.000000 0.666667 0.000000 0.333333 0.000000
770029840.222532 0.333333 0.000000 0.666667 0.000000 0.666667 0.000000 0.333333 0.000000
783544845.166703 0.333333 0.000000 0.666667 0.000000 0.666667 0.000000 0.333333 0.000000
797297055.669801 0.333333 0.000000 0.666667 0.000000 0.666667 0.000000 0.333333 0.000000
811290634.991660 0.333333 0.000000 0.666667 0.000000 0.666667 0.000000 0.333333 0.000000
825529819.462619 0.333333 0.000000 0.666667 0.000000 0.666667 0.000000 0.333333 0.000000
840018919.766026 0.333333 0.000000 0.666667 0.000000 0.666667 0.000000 0.333333 0.000000
854762322.243199 0.333333 0.000000 0.666667 0.000000 0.666667 0.000000 0.333333 0.000000
869764490.221351 0.333333 0.000000 0.666667 0.000000 0.666667 0.000000 0.333333 0.000000
885029965.364767 0.333333 0.000000 0.666667 0.000000 0.666667 0.000000 0.333333 0.000000
900563369.049733 0.333333 0.000000 0.666667 0.000000 0.666667 0.000000 0.333333 0.000000
916369403.763568 0.333333 0.000000 0.666667 0.000000 0.666667 0.000000 0.333333 0.000000
932452854.528245 0.333333 0.000000 0.666667 0.000000 0.666667 0.000000 0.333333 0.000000
948818590.348972 0.333333 0.000000 0.666667 0.000000 0.666667 0.000000 0.333333 0.000000
965471565.688189 0.333333 0.000000 0.666667 0.000000 0.666667 0.000000 0.333333 0.000000
982416821.965480 0.333333 0.000000 0.666667 0.000000 0.666667 0.000000 0.333333 0.000000
999659489.083760 0.333333 0.000000 0.666667 0.000000 0.666667 0.000000 0.333333 0.000000
1017204786.982285 0.333333 0.000000 0.666667 0.000000 0.666667 0.000000 0.333333 0.000000
1035058027.216879 0.333333 0.000000 0.666667 0.000000 0.666667 0.000000 0.333333 0.000000
1053224614.567958 0.333333 0.000000 0.666667 0.000000 0.666667 0.000000 0.333333 0.000000
1071710048.676716 0.333333 0.000000 0.666667 0.000000 0.666667 0.000000 0.333333 0.000000
1090519925.710050 0.333333 0.000000 0.666667 0.000000 0.666667 0.000000 0.333333 0.000000
1109659940.054726 0.333333 0.000000 0.666667 0.000000 0.666667 0.000000 0.333333 0.000000
1129135886.041252 0.333333 0.000000 0.666667 0.000000 0.666667 0.000000 0.333333 0.000000
1148953659.698026 0.333333 0.000000 0.666667 0.000000 0.666667 0.000000 0.333333 0.000000
1169119260.536240 0.333333 0.000000 0.666667 0.000000 0.666667 0.000000 0.333333 0.000000
1189638793.366171 0.333333 0.000000 0.666667 0.000000 0.666667 0.000000 0.333333 0.000000
1210518470.145292 0.333333 0.000000 0.666667 0.000000 0.666667 0.000000 0.333333 0.000000
1231764611.858833 0.333333 0.000000 0.666667 0.000000 0.666667 0.000000 0.333333 0.000000
1253383650.433384 0.333333 0.000000 0.666667 0.000000 0.666667 0.000000 0.333333 0.000000
1275382130.684039 0.333333 0.000000 0.666667 0.000000 0.666667 0.000000 0.333333 0.000000
1297766712.295739 0.333333 0.000000 0.666667 0.000000 0.666667 0.000000 0.333333 0.000000
1320544171.839369 0.333333 0.000000 0.666667 0.000000 0.666667 0.000000 0.333333 0.000000
1343721404.823284 0.333333 0.000000 0.666667 0.000000 0.666667 0.000000 0.333333 0.000000
1367305427.780798 0.333333 0.000000 0.666667 0.000000 0.666667 0.000000 0.333333 0.000000
1391303380.394308 0.333333 0.000000 0.666667 0.000000 0.666667 0.000000 0.333333 0.000000
1415722527.656752 0.333333 0.000000 0.666667 0.000000 0.666667 0.000000 0.333333 0.000000
1440570262.070947 0.333333 0.000000 0.666667 0.000000 0.666667 0.000000 0.333333 0.000000
1465854105.887561 0.333333 0.000000 0.666667 0.000000 0.666667 0.000000 0.333333 0.000000
1491581713.382328 0.333333 0.000000 0.666667 0.000000 0.666667 0.000000 0.333333 0.000000
1517760873.173292 0.333333 0.000000 0.666667 0.000000 0.666667 0.000000 0.333333 0.000000
1544399510.578672 0.333333 0.000000 0.666667 0.000000 0.666667 0.000000 0.333333 0.000000
1571505690.016099 0.333333 0.000000 0.666667 0.000000 0.666667 0.000000 0.333333 0.000000
1599087617.444031 0.333333 0.000000 0.666667 0.000000 0.666667 0.000000 0.333333 0.000000
1627153642.845946 0.333333 0.000000 0.666667 0.000000 0.666667 0.000000 0.333333 0.000000
1655712262.758180 0.333333 0.000000 0.666667 0.000000 0.666667 0.000000 0.333333 0.000000
1684772122.842088 0.333333 0.000000 0.666667 0.000000 0.666667 0.000000 0.333333 0.000000
1714342020.501419 0.333333 0.000000 0.666667 0.000000 0.666667 0.000000 0.333333 0.000000
1744430907.545570 0.333333 0.000000 0.666667 0.000000 0.666667 0.000000 0.333333 0.000000
1775047892.899578 0.333333 0.000000 0.666667 0.000000 0.666667 0.000000 0.333333 0.000000
1806202245.361743 0.333333 0.000000 0.666667 0.000000 0.666667 0.000000 0.333333 0.000000
1837903396.409580 0.333333 0.000000 0.666667 0.000000 0.666667 0.000000 0.333333 0.000000
1870160943.055059 0.333333 0.000000 0.666667 0.000000 0.666667 0.000000 0.333333 0.000000
1902984650.749919 0.333333 0.000000 0.666667 0.000000 0.666667 0.000000 0.333333 0.000000
1936384456.342042 0.333333 0.000000 0.666667 0.000000 0.666667 0.000000 0.333333 0.000000
1970370471.083653 0.333333 0.000000 0.666667 0.000000 0.666667 0.000000 0.333333 0.000000
2004952983.692318 0.333333 0.000000 0.666667 0.000000 0.666667 0.000000 0.333333 0.000000
2040142463.465725 0.333333 0.000000 0.666667 0.000000 0.666667 0.000000 0.333333 0.000000
2075949563.451076 0.333333 0.000000 0.666667 0.000000 0.666667 0.000000 0.333333 0.000000
2112385123.670130 0.333333 0.000000 0.666667 0.000000 0.666667 0.000000 0.333333 0.000000
2149460174.400818 0.333333 0.000000 0.666667 0.000000 0.666667 0.000000 0.333333 0.000000
2187185939.516531 0.333333 0.000000 0.666667 0.000000 0.666667 0.000000 0.333333 0.000000
2225573839.883938 0.333333 0.000000 0.666667 0.000000 0.666667 0.000000 0.333333 0.000000
2264635496.820448 0.333333 0.000000 0.666667 0.000000 0.666667 0.000000 0.333333 0.000000
2304382735.612425 0.333333 0.000000 0.666667 0.000000 0.666667 0.000000 0.333333 0.000000
2344827589.095068 0.333333 0.000000 0.666667 0.000000 0.666667 0.000000 0.333333 0.000000
2385982301.295178 0.333333 0.000000 0.666667 0.000000 0.666667 0.000000 0.333333 0.000000
2427859331.137799 0.333333 0.000000 0.666667 0.000000 0.666667 0.000000 0.333333 0.000000
2470471356.218016 0.333333 0.000000 0.666667 0.000000 0.666667 0.000000 0.333333 0.000000
2513831276.638863 0.333333 0.000000 0.666667 0.000000 0.666667 0.000000 0.333333 0.000000
2557952218.916589 0.333333 0.000000 0.666667 0.000000 0.666667 0.000000 0.333333 0.000000
2602847539.954562 0.333333 0.000000 0.666667 0.000000 0.666667 0.000000 0.333333 0.000000
2648530831.086815 0.333333 0.000000 0.666667 0.000000 0.666667 0.000000 0.333333 0.000000
2695015922.192623 0.333333 0.000000 0.666667 0.000000 0.666667 0.000000 0.333333 0.000000
2742316885.883233 0.333333 0.000000 0.666667 0.000000 0.666667 0.000000 0.333333 0.000000
2790448041.762184 0.333333 0.000000 0.666667 0.000000 0.666667 0.000000 0.333333 0.000000
2839423960.760306 0.333333 0.000000 0.666667 0.000000 0.666667 0.000000 0.333333 0.000000
2889259469.546799 0.333333 0.000000 0.666667 0.000000 0.666667 0.000000 0.333333 0.000000
2939969655.017835 0.333333 0.000000 0.666667 0.000000 0.666667 0.000000 0.333333 0.000000
2991569868.863827 0.333333 0.000000 0.666667 0.000000 0.666667 0.000000 0.333333 0.000000
3044075732.216930 0.333333 0.000000 0.666667 0.000000 0.666667 0.000000 0.333333 0.000000
3097503140.380037 0.333333 0.000000 0.666667 0.000000 0.666667 0.000000 0.333333 0.000000
3151868267.638914 0.333333 0.000000 0.666667 0.000000 0.666667 0.000000 0.333333 0.000000
3207187572.158598 0.333333 0.000000 0.666667 0.000000 0.666667 0.000000 0.333333 0.000000
3263477800.965938 0.333333 0.000000 0.666667 0.000000 0.666667 0.000000 0.333333 0.000000
3320755995.019430 0.333333 0.000000 0.666667 0.000000 0.666667 0.000000 0.333333 0.000000
3379039494.368107 0.333333 0.000000 0.666667 0.000000 0.666667 0.000000 0.333333 0.000000
3438345943.400973 0.333333 0.000000 0.666667 0.000000 0.666667 0.000000 0.333333 0.000000
3498693296.188501 0.333333 0.000000 0.666667 0.000000 0.666667 0.000000 0.333333 0.000000
3560099821.918037 0.333333 0.000000 0.666667 0.000000 0.666667 0.000000 0.333333 0.000000
3622584110.424387 0.333333 0.000000 0.666667 0.000000 0.666667 0.000000 0.333333 0.000000
3686165077.817690 0.333333 0.000000 0.666667 0.000000 0.666667 0.000000 0.333333 0.000000
3750861972.209910 0.333333 0.000000 0.666667 0.000000 0.666667 0.000000 0.333333 0.000000
3816694379.541902 0.333333 0.000000 0.666667 0.000000 0.666667 0.000000 0.333333 0.000000
3883682229.512758 0.333333 0.000000 0.666667 0.000000 0.666667 0.000000 0.333333 0.000000
3951845801.613138 0.333333 0.000000 0.666667 0.000000 0.666667 0.000000 0.333333 0.000000
4021205731.264668 0.333333 0.000000 0.666667 0.000000 0.666667 0.000000 0.333333 0.000000
4091783016.066856 0.333333 0.000000 0.666667 0.000000 0.666667 0.000000 0.333333 0.000000
4163599022.153887 0.333333 0.000000 0.666667 0.000000 0.666667 0.000000 0.333333 0.000000
4236675490.662811 0.333333 0.000000 0.666667 0.000000 0.666667 0.000000 0.333333 0.000000
4311034544.315338 0.333333 0.000000 0.666667 0.000000 0.666667 0.000000 0.333333 0.000000
4386698694.115154 0.333333 0.000000 0.666667 0.000000 0.666667 0.000000 0.333333 0.000000
4463690846.162690 0.333333 0.000000 0.666667 0.000000 0.666667 0.000000 0.333333 0.000000
4542034308.589702 0.333333 0.000000 0.666667 0.000000 0.666667 0.000000 0.333333 0.000000
4621752798.615287 0.333333 0.000000 0.666667 0.000000 0.666667 0.000000 0.333333 0.000000
4702870449.726013 0.333333 0.000000 0.666667 0.000000 0.666667 0.000000 0.333333 0.000000
4785411818.981875 0.333333 0.000000 0.666667 0.000000 0.666667 0.000000 0.333333 0.000000
4869401894.450563 0.333333 0.000000 0.666667 0.000000 0.666667 0.000000 0.333333 0.000000
4954866102.772218 0.333333 0.000000 0.666667 0.000000 0.666667 0.000000 0.333333 0.000000
5041830316.856853 0.333333 0.000000 0.666667 0.000000 0.666667 0.000000 0.333333 0.000000
5130320863.717107 0.333333 0.000000 0.666667 0.000000 0.666667 0.000000 0.333333 0.000000
5220364532.438154 0.333333 0.000000 0.666667 0.000000 0.666667 0.000000 0.333333 0.000000
5311988582.287813 0.333333 0.000000 0.666667 0.000000 0.666667 0.000000 0.333333 0.000000
5405220750.968770 0.333333 0.000000 0.666667 0.000000 0.666667 0.000000 0.333333 0.000000
5500089263.015738 0.333333 0.000000 0.666667 0.000000 0.666667 0.000000 0.333333 0.000000
5596622838.340006 0.333333 0.000000 0.666667 0.000000 0.666667 0.000000 0.333333 0.000000
5694850700.923830 0.333333 0.000000 0.666667 0.000000 0.666667 0.000000 0.333333 0.000000
5794802587.667693 0.333333 0.000000 0.666667 0.000000 0.666667 0.000000 0.333333 0.000000
5896508757.392477 0.333333 0.000000 0.666667 0.000000 0.666667 0.000000 0.333333 0.000000
6000000000.000003 0.333333 0.000000 0.666667 0.000000 0.666667 0.000000 0.333333 0.000000
