! Touchstone file generated by xDrvEM.py
# HZ RI RI R 50
1.0000000000e+03 1.0000000000e+00 0.0000000000e+00 1.0013370000e+00 -1.0020000000e-02 1.0013370000e+00 -1.0020000000e-02 1.0000000000e+00 0.0000000000e+00 
1.0715193050e+03 1.0000000000e+00 0.0000000000e+00 9.6726600000e-01 2.2460000000e-03 9.6726600000e-01 2.2460000000e-03 1.0000000000e+00 0.0000000000e+00 
1.1481536210e+03 1.0000000000e+00 0.0000000000e+00 1.0009790000e+00 -2.4591000000e-02 1.0009790000e+00 -2.4591000000e-02 1.0000000000e+00 0.0000000000e+00 
1.2302687710e+03 1.0000000000e+00 0.0000000000e+00 9.7057300000e-01 1.3252000000e-02 9.7057300000e-01 1.3252000000e-02 1.0000000000e+00 0.0000000000e+00 
1.3182567390e+03 1.0000000000e+00 0.0000000000e+00 9.7517700000e-01 -8.9380000000e-03 9.7517700000e-01 -8.9380000000e-03 1.0000000000e+00 0.0000000000e+00 
1.4125375450e+03 1.0000000000e+00 0.0000000000e+00 1.0034680000e+00 2.8500000000e-04 1.0034680000e+00 2.8500000000e-04 1.0000000000e+00 0.0000000000e+00 
1.5135612480e+03 1.0000000000e+00 0.0000000000e+00 9.7255800000e-01 -3.0370000000e-03 9.7255800000e-01 -3.0370000000e-03 1.0000000000e+00 0.0000000000e+00 
1.6218100970e+03 1.0000000000e+00 0.0000000000e+00 1.0027960000e+00 8.9420000000e-03 1.0027960000e+00 8.9420000000e-03 1.0000000000e+00 0.0000000000e+00 
1.7378008290e+03 1.0000000000e+00 0.0000000000e+00 1.0016380000e+00 -5.4370000000e-03 1.0016380000e+00 -5.4370000000e-03 1.0000000000e+00 0.0000000000e+00 
1.8620871370e+03 1.0000000000e+00 0.0000000000e+00 1.0010690000e+00 3.9160000000e-03 1.0010690000e+00 3.9160000000e-03 1.0000000000e+00 0.0000000000e+00 
1.9952623150e+03 1.0000000000e+00 0.0000000000e+00 9.7096800000e-01 -1.5070000000e-03 9.7096800000e-01 -1.5070000000e-03 1.0000000000e+00 0.0000000000e+00 
2.1379620900e+03 1.0000000000e+00 0.0000000000e+00 1.0022830000e+00 3.3250000000e-03 1.0022830000e+00 3.3250000000e-03 1.0000000000e+00 0.0000000000e+00 
2.2908676530e+03 1.0000000000e+00 0.0000000000e+00 9.7210100000e-01 2.2700000000e-03 9.7210100000e-01 2.2700000000e-03 1.0000000000e+00 0.0000000000e+00 
2.4547089160e+03 1.0000000000e+00 0.0000000000e+00 9.6997600000e-01 4.6830000000e-03 9.6997600000e-01 4.6830000000e-03 1.0000000000e+00 0.0000000000e+00 
2.6302679920e+03 1.0000000000e+00 0.0000000000e+00 9.8038100000e-01 5.6720000000e-03 9.8038100000e-01 5.6720000000e-03 1.0000000000e+00 0.0000000000e+00 
2.8183829310e+03 1.0000000000e+00 0.0000000000e+00 9.7162200000e-01 1.3524000000e-02 9.7162200000e-01 1.3524000000e-02 1.0000000000e+00 0.0000000000e+00 
3.0199517200e+03 1.0000000000e+00 0.0000000000e+00 9.7252200000e-01 9.4920000000e-03 9.7252200000e-01 9.4920000000e-03 1.0000000000e+00 0.0000000000e+00 
3.2359365690e+03 1.0000000000e+00 0.0000000000e+00 1.0008790000e+00 1.4200000000e-04 1.0008790000e+00 1.4200000000e-04 1.0000000000e+00 0.0000000000e+00 
3.4673685050e+03 1.0000000000e+00 0.0000000000e+00 9.7616900000e-01 2.1250000000e-03 9.7616900000e-01 2.1250000000e-03 1.0000000000e+00 0.0000000000e+00 
3.7153522910e+03 1.0000000000e+00 0.0000000000e+00 1.0015120000e+00 1.8761000000e-02 1.0015120000e+00 1.8761000000e-02 1.0000000000e+00 0.0000000000e+00 
3.9810717060e+03 1.0000000000e+00 0.0000000000e+00 1.0021650000e+00 -2.2074000000e-02 1.0021650000e+00 -2.2074000000e-02 1.0000000000e+00 0.0000000000e+00 
4.2657951880e+03 1.0000000000e+00 0.0000000000e+00 9.7491000000e-01 1.5453000000e-02 9.7491000000e-01 1.5453000000e-02 1.0000000000e+00 0.0000000000e+00 
4.5708818960e+03 1.0000000000e+00 0.0000000000e+00 9.7265300000e-01 -1.6771000000e-02 9.7265300000e-01 -1.6771000000e-02 1.0000000000e+00 0.0000000000e+00 
4.8977881940e+03 1.0000000000e+00 0.0000000000e+00 9.7763000000e-01 3.2910000000e-03 9.7763000000e-01 3.2910000000e-03 1.0000000000e+00 0.0000000000e+00 
5.2480746020e+03 1.0000000000e+00 0.0000000000e+00 9.7768100000e-01 1.5273000000e-02 9.7768100000e-01 1.5273000000e-02 1.0000000000e+00 0.0000000000e+00 
5.6234132520e+03 1.0000000000e+00 0.0000000000e+00 9.7199600000e-01 5.8310000000e-03 9.7199600000e-01 5.8310000000e-03 1.0000000000e+00 0.0000000000e+00 
6.0255958610e+03 1.0000000000e+00 0.0000000000e+00 9.7353800000e-01 9.2000000000e-05 9.7353800000e-01 9.2000000000e-05 1.0000000000e+00 0.0000000000e+00 
6.4565422900e+03 1.0000000000e+00 0.0000000000e+00 9.7739300000e-01 1.9386000000e-02 9.7739300000e-01 1.9386000000e-02 1.0000000000e+00 0.0000000000e+00 
6.9183097090e+03 1.0000000000e+00 0.0000000000e+00 9.7738600000e-01 2.1460000000e-03 9.7738600000e-01 2.1460000000e-03 1.0000000000e+00 0.0000000000e+00 
7.4131024130e+03 1.0000000000e+00 0.0000000000e+00 9.7516600000e-01 2.7825000000e-02 9.7516600000e-01 2.7825000000e-02 1.0000000000e+00 0.0000000000e+00 
7.9432823470e+03 1.0000000000e+00 0.0000000000e+00 9.7317900000e-01 2.1308000000e-02 9.7317900000e-01 2.1308000000e-02 1.0000000000e+00 0.0000000000e+00 
8.5113803820e+03 1.0000000000e+00 0.0000000000e+00 9.7564700000e-01 1.8320000000e-03 9.7564700000e-01 1.8320000000e-03 1.0000000000e+00 0.0000000000e+00 
9.1201083940e+03 1.0000000000e+00 0.0000000000e+00 9.7382000000e-01 -1.6463000000e-02 9.7382000000e-01 -1.6463000000e-02 1.0000000000e+00 0.0000000000e+00 
9.7723722100e+03 1.0000000000e+00 0.0000000000e+00 9.8154500000e-01 -2.2324000000e-02 9.8154500000e-01 -2.2324000000e-02 1.0000000000e+00 0.0000000000e+00 
1.0471285481e+04 1.0000000000e+00 0.0000000000e+00 9.7221900000e-01 2.4350000000e-03 9.7221900000e-01 2.4350000000e-03 1.0000000000e+00 0.0000000000e+00 
1.1220184543e+04 1.0000000000e+00 0.0000000000e+00 1.0061490000e+00 6.4320000000e-03 1.0061490000e+00 6.4320000000e-03 1.0000000000e+00 0.0000000000e+00 
1.2022644346e+04 1.0000000000e+00 0.0000000000e+00 9.7698200000e-01 8.2170000000e-03 9.7698200000e-01 8.2170000000e-03 1.0000000000e+00 0.0000000000e+00 
1.2882495517e+04 1.0000000000e+00 0.0000000000e+00 9.8434300000e-01 9.1400000000e-04 9.8434300000e-01 9.1400000000e-04 1.0000000000e+00 0.0000000000e+00 
1.3803842646e+04 1.0000000000e+00 0.0000000000e+00 9.7903600000e-01 3.4340000000e-03 9.7903600000e-01 3.4340000000e-03 1.0000000000e+00 0.0000000000e+00 
1.4791083882e+04 1.0000000000e+00 0.0000000000e+00 9.8222200000e-01 1.6954000000e-02 9.8222200000e-01 1.6954000000e-02 1.0000000000e+00 0.0000000000e+00 
1.5848931925e+04 1.0000000000e+00 0.0000000000e+00 9.7959500000e-01 1.9331000000e-02 9.7959500000e-01 1.9331000000e-02 1.0000000000e+00 0.0000000000e+00 
1.6982436525e+04 1.0000000000e+00 0.0000000000e+00 9.8253800000e-01 -2.8860000000e-03 9.8253800000e-01 -2.8860000000e-03 1.0000000000e+00 0.0000000000e+00 
1.8197008586e+04 1.0000000000e+00 0.0000000000e+00 9.8190800000e-01 -8.4920000000e-03 9.8190800000e-01 -8.4920000000e-03 1.0000000000e+00 0.0000000000e+00 
1.9498445998e+04 1.0000000000e+00 0.0000000000e+00 9.8502700000e-01 2.4440000000e-02 9.8502700000e-01 2.4440000000e-02 1.0000000000e+00 0.0000000000e+00 
2.0892961309e+04 1.0000000000e+00 0.0000000000e+00 9.7814300000e-01 2.5800000000e-02 9.7814300000e-01 2.5800000000e-02 1.0000000000e+00 0.0000000000e+00 
2.2387211386e+04 1.0000000000e+00 0.0000000000e+00 9.8243400000e-01 1.5592000000e-02 9.8243400000e-01 1.5592000000e-02 1.0000000000e+00 0.0000000000e+00 
2.3988329190e+04 1.0000000000e+00 0.0000000000e+00 9.8939000000e-01 1.0796000000e-02 9.8939000000e-01 1.0796000000e-02 1.0000000000e+00 0.0000000000e+00 
2.5703957828e+04 1.0000000000e+00 0.0000000000e+00 9.8670200000e-01 4.4590000000e-03 9.8670200000e-01 4.4590000000e-03 1.0000000000e+00 0.0000000000e+00 
2.7542287033e+04 1.0000000000e+00 0.0000000000e+00 1.0141470000e+00 -2.0634000000e-02 1.0141470000e+00 -2.0634000000e-02 1.0000000000e+00 0.0000000000e+00 
2.9512092267e+04 1.0000000000e+00 0.0000000000e+00 9.8559900000e-01 1.2414000000e-02 9.8559900000e-01 1.2414000000e-02 1.0000000000e+00 0.0000000000e+00 
3.1622776602e+04 1.0000000000e+00 0.0000000000e+00 1.0132010000e+00 3.5261000000e-02 1.0132010000e+00 3.5261000000e-02 1.0000000000e+00 0.0000000000e+00 
3.3884415614e+04 1.0000000000e+00 0.0000000000e+00 9.8282700000e-01 -2.4011000000e-02 9.8282700000e-01 -2.4011000000e-02 1.0000000000e+00 0.0000000000e+00 
3.6307805477e+04 1.0000000000e+00 0.0000000000e+00 9.8490900000e-01 1.2277000000e-02 9.8490900000e-01 1.2277000000e-02 1.0000000000e+00 0.0000000000e+00 
3.8904514499e+04 1.0000000000e+00 0.0000000000e+00 1.0156740000e+00 1.1766000000e-02 1.0156740000e+00 1.1766000000e-02 1.0000000000e+00 0.0000000000e+00 
4.1686938347e+04 1.0000000000e+00 0.0000000000e+00 9.8333200000e-01 6.1680000000e-03 9.8333200000e-01 6.1680000000e-03 1.0000000000e+00 0.0000000000e+00 
4.4668359215e+04 1.0000000000e+00 0.0000000000e+00 1.0169210000e+00 8.4170000000e-03 1.0169210000e+00 8.4170000000e-03 1.0000000000e+00 0.0000000000e+00 
4.7863009232e+04 1.0000000000e+00 0.0000000000e+00 1.0173240000e+00 -2.9193000000e-02 1.0173240000e+00 -2.9193000000e-02 1.0000000000e+00 0.0000000000e+00 
5.1286138399e+04 1.0000000000e+00 0.0000000000e+00 1.0170080000e+00 1.1572000000e-02 1.0170080000e+00 1.1572000000e-02 1.0000000000e+00 0.0000000000e+00 
5.4954087386e+04 1.0000000000e+00 0.0000000000e+00 1.0177420000e+00 -3.0030000000e-03 1.0177420000e+00 -3.0030000000e-03 1.0000000000e+00 0.0000000000e+00 
5.8884365536e+04 1.0000000000e+00 0.0000000000e+00 1.0166960000e+00 -1.0553000000e-02 1.0166960000e+00 -1.0553000000e-02 1.0000000000e+00 0.0000000000e+00 
6.3095734448e+04 1.0000000000e+00 0.0000000000e+00 1.0180300000e+00 -4.0260000000e-03 1.0180300000e+00 -4.0260000000e-03 1.0000000000e+00 0.0000000000e+00 
6.7608297539e+04 1.0000000000e+00 0.0000000000e+00 1.0175200000e+00 1.4256000000e-02 1.0175200000e+00 1.4256000000e-02 1.0000000000e+00 0.0000000000e+00 
7.2443596007e+04 1.0000000000e+00 0.0000000000e+00 1.0182680000e+00 1.7390000000e-02 1.0182680000e+00 1.7390000000e-02 1.0000000000e+00 0.0000000000e+00 
7.7624711663e+04 1.0000000000e+00 0.0000000000e+00 9.8805600000e-01 1.1833000000e-02 9.8805600000e-01 1.1833000000e-02 1.0000000000e+00 0.0000000000e+00 
8.3176377110e+04 1.0000000000e+00 0.0000000000e+00 1.0168580000e+00 5.3000000000e-04 1.0168580000e+00 5.3000000000e-04 1.0000000000e+00 0.0000000000e+00 
8.9125093813e+04 1.0000000000e+00 0.0000000000e+00 1.0179370000e+00 3.2561000000e-02 1.0179370000e+00 3.2561000000e-02 1.0000000000e+00 0.0000000000e+00 
9.5499258602e+04 1.0000000000e+00 0.0000000000e+00 1.0179790000e+00 9.1700000000e-04 1.0179790000e+00 9.1700000000e-04 1.0000000000e+00 0.0000000000e+00 
1.0232929923e+05 1.0000000000e+00 0.0000000000e+00 1.0177610000e+00 -5.3901000000e-02 1.0177610000e+00 -5.3901000000e-02 1.0000000000e+00 0.0000000000e+00 
1.0964781961e+05 1.0000000000e+00 0.0000000000e+00 1.0171780000e+00 -3.1560000000e-03 1.0171780000e+00 -3.1560000000e-03 1.0000000000e+00 0.0000000000e+00 
1.1748975549e+05 1.0000000000e+00 0.0000000000e+00 1.0185610000e+00 1.8014000000e-02 1.0185610000e+00 1.8014000000e-02 1.0000000000e+00 0.0000000000e+00 
1.2589254118e+05 1.0000000000e+00 0.0000000000e+00 9.9309100000e-01 8.3350000000e-03 9.9309100000e-01 8.3350000000e-03 1.0000000000e+00 0.0000000000e+00 
1.3489628826e+05 1.0000000000e+00 0.0000000000e+00 9.8851900000e-01 -9.7290000000e-03 9.8851900000e-01 -9.7290000000e-03 1.0000000000e+00 0.0000000000e+00 
1.4454397708e+05 1.0000000000e+00 0.0000000000e+00 1.0182950000e+00 -1.9783000000e-02 1.0182950000e+00 -1.9783000000e-02 1.0000000000e+00 0.0000000000e+00 
1.5488166189e+05 1.0000000000e+00 0.0000000000e+00 1.0179650000e+00 -1.1915000000e-02 1.0179650000e+00 -1.1915000000e-02 1.0000000000e+00 0.0000000000e+00 
1.6595869074e+05 1.0000000000e+00 0.0000000000e+00 1.0185300000e+00 8.5150000000e-03 1.0185300000e+00 8.5150000000e-03 1.0000000000e+00 0.0000000000e+00 
1.7782794100e+05 1.0000000000e+00 0.0000000000e+00 9.9146700000e-01 -9.9800000000e-03 9.9146700000e-01 -9.9800000000e-03 1.0000000000e+00 0.0000000000e+00 
1.9054607180e+05 1.0000000000e+00 0.0000000000e+00 9.8830000000e-01 -1.4133000000e-02 9.8830000000e-01 -1.4133000000e-02 1.0000000000e+00 0.0000000000e+00 
2.0417379447e+05 1.0000000000e+00 0.0000000000e+00 1.0183640000e+00 3.2550000000e-03 1.0183640000e+00 3.2550000000e-03 1.0000000000e+00 0.0000000000e+00 
2.1877616239e+05 1.0000000000e+00 0.0000000000e+00 9.9090200000e-01 1.0965000000e-02 9.9090200000e-01 1.0965000000e-02 1.0000000000e+00 0.0000000000e+00 
2.3442288153e+05 1.0000000000e+00 0.0000000000e+00 1.0188940000e+00 -1.5000000000e-05 1.0188940000e+00 -1.5000000000e-05 1.0000000000e+00 0.0000000000e+00 
2.5118864315e+05 1.0000000000e+00 0.0000000000e+00 9.8960900000e-01 1.1984000000e-02 9.8960900000e-01 1.1984000000e-02 1.0000000000e+00 0.0000000000e+00 
2.6915348039e+05 1.0000000000e+00 0.0000000000e+00 9.8815800000e-01 -1.4070000000e-02 9.8815800000e-01 -1.4070000000e-02 1.0000000000e+00 0.0000000000e+00 
2.8840315031e+05 1.0000000000e+00 0.0000000000e+00 1.0190240000e+00 -2.7440000000e-02 1.0190240000e+00 -2.7440000000e-02 1.0000000000e+00 0.0000000000e+00 
3.0902954325e+05 1.0000000000e+00 0.0000000000e+00 1.0190700000e+00 -9.8950000000e-03 1.0190700000e+00 -9.8950000000e-03 1.0000000000e+00 0.0000000000e+00 
3.3113112148e+05 1.0000000000e+00 0.0000000000e+00 1.0179620000e+00 -1.4881000000e-02 1.0179620000e+00 -1.4881000000e-02 1.0000000000e+00 0.0000000000e+00 
3.5481338923e+05 1.0000000000e+00 0.0000000000e+00 1.0191890000e+00 -6.7920000000e-03 1.0191890000e+00 -6.7920000000e-03 1.0000000000e+00 0.0000000000e+00 
3.8018939632e+05 1.0000000000e+00 0.0000000000e+00 1.0181760000e+00 -1.8300000000e-02 1.0181760000e+00 -1.8300000000e-02 1.0000000000e+00 0.0000000000e+00 
4.0738027780e+05 1.0000000000e+00 0.0000000000e+00 1.0177450000e+00 -2.0748000000e-02 1.0177450000e+00 -2.0748000000e-02 1.0000000000e+00 0.0000000000e+00 
4.3651583224e+05 1.0000000000e+00 0.0000000000e+00 1.0183600000e+00 -1.5735000000e-02 1.0183600000e+00 -1.5735000000e-02 1.0000000000e+00 0.0000000000e+00 
4.6773514129e+05 1.0000000000e+00 0.0000000000e+00 9.8746300000e-01 -2.6813000000e-02 9.8746300000e-01 -2.6813000000e-02 1.0000000000e+00 0.0000000000e+00 
5.0118723363e+05 1.0000000000e+00 0.0000000000e+00 9.8999800000e-01 -2.9887000000e-02 9.8999800000e-01 -2.9887000000e-02 1.0000000000e+00 0.0000000000e+00 
5.3703179637e+05 1.0000000000e+00 0.0000000000e+00 9.9284300000e-01 -4.6965000000e-02 9.9284300000e-01 -4.6965000000e-02 1.0000000000e+00 0.0000000000e+00 
5.7543993734e+05 1.0000000000e+00 0.0000000000e+00 9.8662900000e-01 -3.9206000000e-02 9.8662900000e-01 -3.9206000000e-02 1.0000000000e+00 0.0000000000e+00 
6.1659500186e+05 1.0000000000e+00 0.0000000000e+00 1.0188650000e+00 -2.7240000000e-02 1.0188650000e+00 -2.7240000000e-02 1.0000000000e+00 0.0000000000e+00 
6.6069344801e+05 1.0000000000e+00 0.0000000000e+00 9.8961700000e-01 -9.2750000000e-03 9.8961700000e-01 -9.2750000000e-03 1.0000000000e+00 0.0000000000e+00 
7.0794578438e+05 1.0000000000e+00 0.0000000000e+00 1.0193850000e+00 -2.0401000000e-02 1.0193850000e+00 -2.0401000000e-02 1.0000000000e+00 0.0000000000e+00 
7.5857757503e+05 1.0000000000e+00 0.0000000000e+00 1.0178340000e+00 1.2140000000e-02 1.0178340000e+00 1.2140000000e-02 1.0000000000e+00 0.0000000000e+00 
8.1283051616e+05 1.0000000000e+00 0.0000000000e+00 1.0193120000e+00 -7.0260000000e-03 1.0193120000e+00 -7.0260000000e-03 1.0000000000e+00 0.0000000000e+00 
8.7096358996e+05 1.0000000000e+00 0.0000000000e+00 9.8765900000e-01 -4.8521000000e-02 9.8765900000e-01 -4.8521000000e-02 1.0000000000e+00 0.0000000000e+00 
9.3325430080e+05 1.0000000000e+00 0.0000000000e+00 1.0178730000e+00 -1.9830000000e-02 1.0178730000e+00 -1.9830000000e-02 1.0000000000e+00 0.0000000000e+00 
1.0000000000e+06 1.0000000000e+00 0.0000000000e+00 1.0185930000e+00 -4.8157000000e-02 1.0185930000e+00 -4.8157000000e-02 1.0000000000e+00 0.0000000000e+00 
