! Touchstone file generated by xDrvEM.py
# Hz S RI R 50
! Hz ReS11 ImS11 ReS21 ImS21 ReS12 ImS12 ReS22 ImS22
1000.000000 1.0000 0.0000 1.001337 -0.010020 1.001337 -0.010020 1.0000 0.0000
1071.519305 1.0000 0.0000 0.967266 0.002246 0.967266 0.002246 1.0000 0.0000
1148.153621 1.0000 0.0000 1.000979 -0.024591 1.000979 -0.024591 1.0000 0.0000
1230.268771 1.0000 0.0000 0.970573 0.013252 0.970573 0.013252 1.0000 0.0000
1318.256739 1.0000 0.0000 0.975177 -0.008938 0.975177 -0.008938 1.0000 0.0000
1412.537545 1.0000 0.0000 1.003468 0.000285 1.003468 0.000285 1.0000 0.0000
1513.561248 1.0000 0.0000 0.972558 -0.003037 0.972558 -0.003037 1.0000 0.0000
1621.810097 1.0000 0.0000 1.002796 0.008942 1.002796 0.008942 1.0000 0.0000
1737.800829 1.0000 0.0000 1.001638 -0.005437 1.001638 -0.005437 1.0000 0.0000
1862.087137 1.0000 0.0000 1.001069 0.003916 1.001069 0.003916 1.0000 0.0000
1995.262315 1.0000 0.0000 0.970968 -0.001507 0.970968 -0.001507 1.0000 0.0000
2137.962090 1.0000 0.0000 1.002283 0.003325 1.002283 0.003325 1.0000 0.0000
2290.867653 1.0000 0.0000 0.972101 0.002270 0.972101 0.002270 1.0000 0.0000
2454.708916 1.0000 0.0000 0.969976 0.004683 0.969976 0.004683 1.0000 0.0000
2630.267992 1.0000 0.0000 0.980381 0.005672 0.980381 0.005672 1.0000 0.0000
2818.382931 1.0000 0.0000 0.971622 0.013524 0.971622 0.013524 1.0000 0.0000
3019.951720 1.0000 0.0000 0.972522 0.009492 0.972522 0.009492 1.0000 0.0000
3235.936569 1.0000 0.0000 1.000879 0.000142 1.000879 0.000142 1.0000 0.0000
3467.368505 1.0000 0.0000 0.976169 0.002125 0.976169 0.002125 1.0000 0.0000
3715.352291 1.0000 0.0000 1.001512 0.018761 1.001512 0.018761 1.0000 0.0000
3981.071706 1.0000 0.0000 1.002165 -0.022074 1.002165 -0.022074 1.0000 0.0000
4265.795188 1.0000 0.0000 0.974910 0.015453 0.974910 0.015453 1.0000 0.0000
4570.881896 1.0000 0.0000 0.972653 -0.016771 0.972653 -0.016771 1.0000 0.0000
4897.788194 1.0000 0.0000 0.977630 0.003291 0.977630 0.003291 1.0000 0.0000
5248.074602 1.0000 0.0000 0.977681 0.015273 0.977681 0.015273 1.0000 0.0000
5623.413252 1.0000 0.0000 0.971996 0.005831 0.971996 0.005831 1.0000 0.0000
6025.595861 1.0000 0.0000 0.973538 0.000092 0.973538 0.000092 1.0000 0.0000
6456.542290 1.0000 0.0000 0.977393 0.019386 0.977393 0.019386 1.0000 0.0000
6918.309709 1.0000 0.0000 0.977386 0.002146 0.977386 0.002146 1.0000 0.0000
7413.102413 1.0000 0.0000 0.975166 0.027825 0.975166 0.027825 1.0000 0.0000
7943.282347 1.0000 0.0000 0.973179 0.021308 0.973179 0.021308 1.0000 0.0000
8511.380382 1.0000 0.0000 0.975647 0.001832 0.975647 0.001832 1.0000 0.0000
9120.108394 1.0000 0.0000 0.973820 -0.016463 0.973820 -0.016463 1.0000 0.0000
9772.372210 1.0000 0.0000 0.981545 -0.022324 0.981545 -0.022324 1.0000 0.0000
10471.285481 1.0000 0.0000 0.972219 0.002435 0.972219 0.002435 1.0000 0.0000
11220.184543 1.0000 0.0000 1.006149 0.006432 1.006149 0.006432 1.0000 0.0000
12022.644346 1.0000 0.0000 0.976982 0.008217 0.976982 0.008217 1.0000 0.0000
12882.495517 1.0000 0.0000 0.984343 0.000914 0.984343 0.000914 1.0000 0.0000
13803.842646 1.0000 0.0000 0.979036 0.003434 0.979036 0.003434 1.0000 0.0000
14791.083882 1.0000 0.0000 0.982222 0.016954 0.982222 0.016954 1.0000 0.0000
15848.931925 1.0000 0.0000 0.979595 0.019331 0.979595 0.019331 1.0000 0.0000
16982.436525 1.0000 0.0000 0.982538 -0.002886 0.982538 -0.002886 1.0000 0.0000
18197.008586 1.0000 0.0000 0.981908 -0.008492 0.981908 -0.008492 1.0000 0.0000
19498.445998 1.0000 0.0000 0.985027 0.024440 0.985027 0.024440 1.0000 0.0000
20892.961309 1.0000 0.0000 0.978143 0.025800 0.978143 0.025800 1.0000 0.0000
22387.211386 1.0000 0.0000 0.982434 0.015592 0.982434 0.015592 1.0000 0.0000
23988.329190 1.0000 0.0000 0.989390 0.010796 0.989390 0.010796 1.0000 0.0000
25703.957828 1.0000 0.0000 0.986702 0.004459 0.986702 0.004459 1.0000 0.0000
27542.287033 1.0000 0.0000 1.014147 -0.020634 1.014147 -0.020634 1.0000 0.0000
29512.092267 1.0000 0.0000 0.985599 0.012414 0.985599 0.012414 1.0000 0.0000
31622.776602 1.0000 0.0000 1.013201 0.035261 1.013201 0.035261 1.0000 0.0000
33884.415614 1.0000 0.0000 0.982827 -0.024011 0.982827 -0.024011 1.0000 0.0000
36307.805477 1.0000 0.0000 0.984909 0.012277 0.984909 0.012277 1.0000 0.0000
38904.514499 1.0000 0.0000 1.015674 0.011766 1.015674 0.011766 1.0000 0.0000
41686.938347 1.0000 0.0000 0.983332 0.006168 0.983332 0.006168 1.0000 0.0000
44668.359215 1.0000 0.0000 1.016921 0.008417 1.016921 0.008417 1.0000 0.0000
47863.009232 1.0000 0.0000 1.017324 -0.029193 1.017324 -0.029193 1.0000 0.0000
51286.138399 1.0000 0.0000 1.017008 0.011572 1.017008 0.011572 1.0000 0.0000
54954.087386 1.0000 0.0000 1.017742 -0.003003 1.017742 -0.003003 1.0000 0.0000
58884.365536 1.0000 0.0000 1.016696 -0.010553 1.016696 -0.010553 1.0000 0.0000
63095.734448 1.0000 0.0000 1.018030 -0.004026 1.018030 -0.004026 1.0000 0.0000
67608.297539 1.0000 0.0000 1.017520 0.014256 1.017520 0.014256 1.0000 0.0000
72443.596007 1.0000 0.0000 1.018268 0.017390 1.018268 0.017390 1.0000 0.0000
77624.711663 1.0000 0.0000 0.988056 0.011833 0.988056 0.011833 1.0000 0.0000
83176.377110 1.0000 0.0000 1.016858 0.000530 1.016858 0.000530 1.0000 0.0000
89125.093813 1.0000 0.0000 1.017937 0.032561 1.017937 0.032561 1.0000 0.0000
95499.258602 1.0000 0.0000 1.017979 0.000917 1.017979 0.000917 1.0000 0.0000
102329.299228 1.0000 0.0000 1.017761 -0.053901 1.017761 -0.053901 1.0000 0.0000
109647.819614 1.0000 0.0000 1.017178 -0.003156 1.017178 -0.003156 1.0000 0.0000
117489.755494 1.0000 0.0000 1.018561 0.018014 1.018561 0.018014 1.0000 0.0000
125892.541179 1.0000 0.0000 0.993091 0.008335 0.993091 0.008335 1.0000 0.0000
134896.288259 1.0000 0.0000 0.988519 -0.009729 0.988519 -0.009729 1.0000 0.0000
144543.977075 1.0000 0.0000 1.018295 -0.019783 1.018295 -0.019783 1.0000 0.0000
154881.661891 1.0000 0.0000 1.017965 -0.011915 1.017965 -0.011915 1.0000 0.0000
165958.690744 1.0000 0.0000 1.018530 0.008515 1.018530 0.008515 1.0000 0.0000
177827.941004 1.0000 0.0000 0.991467 -0.009980 0.991467 -0.009980 1.0000 0.0000
190546.071796 1.0000 0.0000 0.988300 -0.014133 0.988300 -0.014133 1.0000 0.0000
204173.794467 1.0000 0.0000 1.018364 0.003255 1.018364 0.003255 1.0000 0.0000
218776.162395 1.0000 0.0000 0.990902 0.010965 0.990902 0.010965 1.0000 0.0000
234422.881532 1.0000 0.0000 1.018894 -0.000015 1.018894 -0.000015 1.0000 0.0000
251188.643151 1.0000 0.0000 0.989609 0.011984 0.989609 0.011984 1.0000 0.0000
269153.480393 1.0000 0.0000 0.988158 -0.014070 0.988158 -0.014070 1.0000 0.0000
288403.150313 1.0000 0.0000 1.019024 -0.027440 1.019024 -0.027440 1.0000 0.0000
309029.543251 1.0000 0.0000 1.019070 -0.009895 1.019070 -0.009895 1.0000 0.0000
331131.121483 1.0000 0.0000 1.017962 -0.014881 1.017962 -0.014881 1.0000 0.0000
354813.389234 1.0000 0.0000 1.019189 -0.006792 1.019189 -0.006792 1.0000 0.0000
380189.396321 1.0000 0.0000 1.018176 -0.018300 1.018176 -0.018300 1.0000 0.0000
407380.277804 1.0000 0.0000 1.017745 -0.020748 1.017745 -0.020748 1.0000 0.0000
436515.832240 1.0000 0.0000 1.018360 -0.015735 1.018360 -0.015735 1.0000 0.0000
467735.141287 1.0000 0.0000 0.987463 -0.026813 0.987463 -0.026813 1.0000 0.0000
501187.233627 1.0000 0.0000 0.989998 -0.029887 0.989998 -0.029887 1.0000 0.0000
537031.796370 1.0000 0.0000 0.992843 -0.046965 0.992843 -0.046965 1.0000 0.0000
575439.937337 1.0000 0.0000 0.986629 -0.039206 0.986629 -0.039206 1.0000 0.0000
616595.001861 1.0000 0.0000 1.018865 -0.027240 1.018865 -0.027240 1.0000 0.0000
660693.448008 1.0000 0.0000 0.989617 -0.009275 0.989617 -0.009275 1.0000 0.0000
707945.784384 1.0000 0.0000 1.019385 -0.020401 1.019385 -0.020401 1.0000 0.0000
758577.575029 1.0000 0.0000 1.017834 0.012140 1.017834 0.012140 1.0000 0.0000
812830.516164 1.0000 0.0000 1.019312 -0.007026 1.019312 -0.007026 1.0000 0.0000
870963.589956 1.0000 0.0000 0.987659 -0.048521 0.987659 -0.048521 1.0000 0.0000
933254.300797 1.0000 0.0000 1.017873 -0.019830 1.017873 -0.019830 1.0000 0.0000
1000000.000000 1.0000 0.0000 1.018593 -0.048157 1.018593 -0.048157 1.0000 0.0000
